Ba Zr O  H 
 1.0000000000000000
     8.3840000000000003    0.0000000000000000    0.0000000000000000
     0.0000000000000000    8.3840000000000003    0.0000000000000000
     0.0000000000000000    0.0000000000000000    8.3840000000000003
 Ba  Zr  O   H  
   8   8  24   2
Cartesian
  0.3235364330171543  0.5165826537595065  0.0748999667158696
  0.0994128691447121  0.3926009753873599  4.4213316161310949
  0.0797859786492630  4.2049628327944877 -0.0169034265000153
  0.3060285135187955  4.5465641715947589  4.1727319694275034
  4.4957456119491503  0.2474770878552709  0.1538616020269325
  4.3633808285468962  0.4296626417317420  4.1644670302848601
  4.5127495269932796  4.2311399972451094 -0.0366714832356337
  4.4603120886896521  4.8404298740350713  3.9945521395185613
  2.2209920623871082  2.4543300976006650  2.2213194333469843
  2.3894925810763161  2.1503752218462866  6.3903938489524199
  2.5341080905576465  6.4586447937445035  2.1166048185791593
  2.3291518313030517  6.5593041234203211  6.4593116283359437
  6.4253908903872441  2.3854799878091768  2.3716872101447533
  6.5234519395386723  2.3933332842670980  6.4111812071953533
  6.6309943979244723  6.4943542503240987  2.1678773553207051
  6.4861596246386926  6.6558305805925748  6.4609997361773894
  2.5513386210754554  2.5319254937872953  0.2853480740666557
  2.2000835883427827  2.2110389371799393  4.2512409731406793
  2.1473703579287400  6.6320557295684450  0.1873824083763849
  2.5970453415495767  6.5379873640680026  4.2769686406864356
  6.3374698146035229  2.1211153257378781  0.0786997040683901
  6.2536762873130751  2.6102862366772870  4.3680556731599536
  6.9987835497265474  6.7596844133436642  0.1330914732745021
  6.4591625034734479  6.6202883657833000  4.2832908142737978
  2.2308630745230462  0.3166346707707170  2.1097620502382202
  2.4466874998495571  0.2519900591599988  6.5302680698132711
  2.1794991828994461  4.4277594694718569  2.2464103484251812
  2.1579437307549028  4.4383244464998350  6.4220325247414936
  6.5342302334509270  0.1587652429838824  2.2787158377976993
  6.1681352906704889  0.2830334628402963  6.3336853062720788
  6.3152269058213175  4.5197429221582697  2.1318275734891849
  6.9692013689917296  4.5574590538595698  6.3709441624503302
  0.1091826680681559  2.5762838934159276  2.7026688773328558
  0.1946747865255386  2.0724353988112125  6.3417849048996846
  0.3463062790242800  6.1465728765675065  1.8924221066532911
  0.3765993656821104  6.6331265320700528  6.4130733669374278
  4.3284439371231018  2.7219476359693791  2.1060990384741962
  4.2814558636527451  2.7717404664186223  6.3159806784681027
  4.5288225834567788  6.8674720752448195  2.0767809275270586
  4.4204654590085557  6.3299831675298766  6.5812951910079649
  0.5704918243712386  6.6626121825870204  9.4162215982158521
  3.1422647920314883  4.6153411450015653  6.3108300850930288
