Ba Zr O  H 
 1.0000000000000000
     8.3840000000000003    0.0000000000000000    0.0000000000000000
     0.0000000000000000    8.3840000000000003    0.0000000000000000
     0.0000000000000000    0.0000000000000000    8.3840000000000003
 Ba  Zr  O   H  
   8   8  24   2
Cartesian
  0.3495076285400001  0.2047146050651201  0.1912434660051952
  0.1640846830146918  0.6308052323204896  4.4921432951665592
  0.2552686839574328  4.2654997475487191  0.1139783489996542
  0.1195696537279789  4.3031719384612384  4.4487283460237759
  4.0405822845860513  0.4744914300598399 -0.1347025233053545
  4.3945157559193984  0.3979238762974757  4.3361738641471765
  4.8017469885478192  4.6614465434364387  0.3613886664631494
  4.6957155196201352  4.5012289310247704  3.9905998968768799
  2.3385526410314244  2.5745375612016925  2.0714746751099016
  2.4362012016515955  2.5003586423040787  6.3457545832029467
  2.4929403928509353  6.6907871534123515  2.1639692056997015
  2.1542405392661408  6.5177928405575702  6.6077098188660273
  6.7171683371972772  2.3000987348865523  2.3060796259174148
  6.5879337443039292  2.3730688426210969  6.3303566573480170
  6.5470414645996664  6.8290076068392054  1.7947632124347617
  6.5763675460561517  6.5420141354001302  6.2611341292325466
  2.1139201820770843  2.3489576002663672 -0.0560115147658204
  2.5255489634032164  2.9415825648608336  4.1257306958373547
  2.5420847549165786  6.8347638101025892  0.1655752745597069
  2.4297403097574901  6.3830485304777103  4.3099098658524273
  6.6940427732473680  2.2824036147593731  0.0209305124477596
  6.6357465918008236  2.7181908085604096  4.2833257481375488
  6.5357550980507133  7.1491290832167165 -0.1299324289027542
  6.6584906692909618  6.3205539755195508  4.1409607202863308
  2.2317720450995768  0.2362033243999372  2.0282614996200898
  2.0482192046631167  0.3100066225201511  6.0423775259468560
  2.6059793968962097  4.5398979534405255  2.1666641109779112
  2.1536605130795357  4.5459609314842861  6.6644422104547205
  6.4818103359840249  0.3570565923267955  2.5776594342827690
  6.3566431669618977  0.3873088547637665  6.0935775267275325
  6.9715270879295446  4.4582210268981131  1.8282281163054857
  6.6800411341425088  4.4855538858464241  6.5659732149333365
  0.3303803299328853  2.0594437213693917  2.3885773706458235
  0.1943924645199867  2.5005468919805427  6.2407903737689194
  0.3355626650361918  6.6248314857395352  1.7558143532451840
  0.1841109737412072  6.4924715941393378  6.5959308665821714
  4.4102311455997878  2.1767848168620372  1.8818283639340148
  4.3637997370004751  2.9179437420475023  6.5502802133703764
  4.4708045881739684  6.6931329763312659  2.3736142517917451
  4.4682899564222254  6.5438062301057860  6.2168656039472801
  0.3453414147653991  6.2214239811370629 11.1291581322030986
  2.3747211306937728  5.3062991359042861  4.3093781988754261
