Ba Zr O  H 
 1.0000000000000000
     8.3840000000000003    0.0000000000000000    0.0000000000000000
     0.0000000000000000    8.3840000000000003    0.0000000000000000
     0.0000000000000000    0.0000000000000000    8.3840000000000003
 Ba  Zr  O   H  
   8   8  24   1
Cartesian
  0.4913906628934021  0.7107243695360697 -0.4541971978927310
  0.4952164059496452  0.5551858856303906  3.6660215348582312
  0.4646117713811221  4.7235947144716475 -0.7048129442528839
  0.6426946894059543  4.5356588890643996  3.6402411452711378
  4.8073169574896681  0.4266116499524811 -0.4800690157137920
  4.4933578252620947  0.3132302802755708  3.5112963555887111
  4.4827773969672418  4.9024512336862145 -0.7878107310061087
  4.7239497632608254  4.6705560291838202  3.7970601497416929
  2.4192050440842396  2.3808554223659861  1.7544731986383104
  2.6228279733233695  2.4046773864860773  5.7637132408777658
  2.5282906561388097  6.6609206294629670  1.4545679183311664
  2.4913391831669514  6.7572364464245140  5.6958025804226917
  6.6060618961667448  2.5515415924017137  1.4476035150831577
  6.5539380954663109  2.7483059528578515  5.6476941707800128
  6.5356758720311374  6.8241402345594357  1.5640465175144667
  6.7731555951452016  6.9369191285797633  5.8530451258383076
  2.6938040127470622  2.2695631851147131 -0.4727243196922324
  3.0131426690137086  2.6495962185785031  3.8030144106452948
  2.7025679289202760  7.0359416090246514 -0.4859010335257756
  2.4774910360951314  6.6801032062965167  3.5974769687882064
  6.9083227249524803  2.5205787503372430 -0.8352894871298484
  6.4389912927261541  2.6927669499256859  3.5265953755208810
  6.7472081242791306  6.7253232351075836 -0.3909354112585867
  7.0103833231294672  6.8459607704782188  3.6742075300828332
  2.3428238983326168  0.3313083943470114  1.6778402118920885
  2.4337153843707973  0.4452873297421912  5.7917386334669025
  2.4055176501738966  4.6148410620833094  1.7268435721206412
  2.5621183070583129  4.7034320103575551  5.9371308442588822
  6.6951863686873736  0.4833947568483852  1.5361147442038865
  6.5846033666304331  0.6502082715069168  5.6148290221886779
  6.8515362196292502  4.7272236071288480  1.3989133098520354
  6.8308334187035200  4.6917782006039870  5.9078643545153966
  0.4022683860371735  2.4350345051434017  1.4699479718921651
  0.4446241097068004  2.5943312319539942  5.1870175469150830
  0.2975831517831359  6.9078727230224635  1.4736537541004433
  0.4138362351295433  6.7382388094305323  6.0701006847812975
  4.6144781602323839  2.2452837463357724  1.6112480740268609
  4.5728978067004915  2.8387215822669307  5.7050372560549105
  4.4385435296433480  6.7942194584478584  1.8416173714958743
  4.6976527573525333  6.4843178659476255  5.6540517575465863
  0.2189175628340083  6.0613915926259674 18.7443681333230465
