Ba Zr O  H 
 1.0000000000000000
     8.3840000000000003    0.0000000000000000    0.0000000000000000
     0.0000000000000000    8.3840000000000003    0.0000000000000000
     0.0000000000000000    0.0000000000000000    8.3840000000000003
 Ba  Zr  O   H  
   8   8  24   1
Cartesian
  0.3960885787122879  0.4699111896402800 -0.8899438603664083
  0.4329359003030252  0.5292371547129094  3.4455549205263316
  0.4768019095326059  4.4386515095991914 -0.5177375565536675
  0.4495788955322382  4.7790850826962421  3.7455755263518102
  4.5391649161346663  0.5585247821696142 -0.4294506238616570
  4.7436327037664681  0.5370156121440308  3.6410294848379388
  4.6729861738207878  4.4662698391833429 -0.8244438243730049
  4.6673319593496077  4.7916427211826074  3.4144793011392274
  2.6747161032240596  2.6147166640122417  1.4828175790583182
  2.6073335295509046  2.5994646858710282  5.5904537964745229
  2.7431404149185874  6.8275041025679615  1.6660655824971784
  2.5155025060956278  6.9151992476146305  5.6689182083171259
  6.7837460840637434  2.6276807367457122  1.4385824962680434
  6.8727421631829735  2.6894710211167414  5.5643718125849109
  6.6231837795774613  6.6672709359732956  1.5649444543313271
  6.5623080766631743  6.7817071027260010  5.7951926304507220
  3.0317465082687143  2.5803490456386999 -0.6572239302915243
  2.2950673177041256  2.9787680521708557  3.4158515256587427
  2.6005169048887238  6.8547181215349218 -0.4100549611539672
  2.2537796075277630  6.7900688260179809  3.6221299186718530
  6.6622119556720358  2.6570620699256629 -0.5543449904308648
  6.8349572861783292  2.3861378724892126  3.5213079962372240
  6.1488587432090327  6.6034314169628967 -0.3620813778992705
  6.7124401569794863  6.7209882298629555  3.7205033132944694
  2.2205629977829537  0.4403709788802503  1.7943321430938624
  2.3350613669271651  0.5409185944942926  5.7092657463641938
  2.8089813878736867  4.7589541535755790  1.5994626096009468
  2.9235968350065704  4.8044519216776473  5.4582336709767967
  6.7970084578595547  0.3630148077684102  1.3211941494422554
  6.7754017928089549  0.6001835629271531  5.7731564639021569
  6.9394462557769288  4.6623125878236955  1.2240416979364090
  6.9654493189665754  4.7592614001003195  5.5062315824924237
  0.5445220759803558  2.5072001306144647  1.2973406651373496
  0.6076656726377543  2.7050228246769383  5.8255519260923236
  0.4081457103720345  6.6589944776176191  1.6088065465849186
  0.4270344350203396  6.7956472365499634  5.8491885274264570
  4.6720362600731251  2.6043440909117743  1.7877788856994650
  4.8054244991731778  2.6973860897446253  5.3327406628717346
  4.6396195460223755  7.2958031927395623  1.8060366392579343
  4.6561516551401079  7.0278044715012919  5.3793076531248127
  0.7387778734621727  7.5103640215509575 17.9774684332018673
