Ba Zr O  H 
 1.0000000000000000
     8.3840000000000003    0.0000000000000000    0.0000000000000000
     0.0000000000000000    8.3840000000000003    0.0000000000000000
     0.0000000000000000    0.0000000000000000    8.3840000000000003
 Ba  Zr  O   H  
   8   8  24   1
Cartesian
 -0.0941201179925580 -0.0026289936463554  0.3160032834253205
 -0.2958940628400993 -0.1204960515934341  4.8152494877396945
  0.0179370419906657  4.1961975135158083  0.6161245173373803
  0.1313880152649984  4.1306828026824602  4.6704072183666225
  4.1307206984796556 -0.2243891199836131  0.4216506823035621
  4.0414300567269681 -0.3882669589053060  4.7337528241578468
  4.1896040867746525  3.8071094840072326  0.2723049999923013
  4.3733459911593044  4.0307927653442919  4.7338393716274494
  2.0402261442235283  2.0070005137289444  2.6060128584788860
  2.1432728949601532  2.0001223351188879  6.7583386925689766
  2.0392248115681761  6.1906533251221063  2.5370305502459090
  2.1754828405549289  6.1533633055773738  6.7589995626496480
  6.2876155286326387  2.0493094387190776  2.5318102888628586
  6.3799773166335774  1.9769523690666713  6.7012374731281303
  6.3279895426344579  6.2741943415078509  2.7121242196722921
  6.3987759015401773  6.0018999342367687  6.8624197981838293
  2.1301146726002429  2.3251212719036758  0.5723766044463643
  2.0027121609106007  2.0151001070006851  4.6871127713466887
  2.1645134534368009  5.9184326275851857  0.5927101094644360
  2.1360311833527743  6.2988709064000368  4.7074225532160865
  6.3065519056635067  2.1564530858581246  0.3993034962676166
  6.1016915243878493  1.6545640104056936  4.6551713009524924
  6.2998522179746672  5.8818248442773093  0.5919379121957827
  6.0303325327043700  6.3991856587061955  4.9296781216061030
  2.1212369682995802 -0.0019973978984111  2.2905774717473597
  2.2653815032808171 -0.0508345587070400  6.8664065512116306
  2.2921890988503124  4.1725872156320580  2.6680061751894977
  2.2503646231907490  4.0381357163177194  6.4433225123902895
  6.5501677545033097 -0.0612588043640483  2.1074063288510310
  6.2956485446009944 -0.2068653909668334  6.9320970795940484
  6.2964209399949400  4.1984704085527689  2.7636874478188407
  6.4118682363263488  4.0436494231744708  6.4704083937741510
 -0.0188035460117060  2.2031995962620967  2.2692199255527732
 -0.0394480948397897  2.1023227857731408  6.7396782675248348
 -0.0361175652034039  6.0655496671874198  2.9142903007963543
  0.0944142160715954  6.0838543494473711  6.6833375767270917
  4.1348159895911856  2.3709048111621507  2.6822165912744742
  4.2328260817476480  1.7898953744426753  6.5672156262496824
  3.9998375284792202  6.1281111156956731  2.4805485550669917
  4.1359090034016548  6.1339210280376211  6.8272902395934416
  3.3420096828921473  4.2279122854193050 11.0557882066905773
