Ba Zr O  H 
 1.0000000000000000
     8.3840000000000003    0.0000000000000000    0.0000000000000000
     0.0000000000000000    8.3840000000000003    0.0000000000000000
     0.0000000000000000    0.0000000000000000    8.3840000000000003
 Ba  Zr  O   H  
   8   8  24   1
Cartesian
 -0.0368008728116746 -0.1516898964990908  0.5374987278064984
 -0.0719679529120931 -0.1735777734882058  4.9310751421807586
  0.1402410703870104  4.1643328632769618  0.3814262897473493
  0.2521004261622099  4.3710976378440929  4.5326744401973063
  4.1646198557454897 -0.0869157878628832  0.2972806428722297
  4.1103203795695045 -0.0754532943371091  4.5333259213061918
  4.3090426071050354  4.1787939342270866  0.2074832515138920
  4.3931023915131941  3.9897826709464317  4.7969623379521042
  2.2003940664957744  1.9519257607900591  2.3893186115424463
  2.0248277842541800  1.9825052249872359  6.6828728264148003
  2.1427249298118682  6.4300205563300903  2.4886165038189834
  2.0667132225376590  6.2751347353905338  6.7847274181806219
  6.4013661218501703  1.8837674194721390  2.4778508526416485
  6.3498905362274147  1.8487993014940365  6.7567011209480921
  6.2560387547980998  6.1302675522842067  2.4278874050426924
  6.2767517878107704  6.1020033601245602  6.6934731345860099
  2.4354573677411420  2.0363096025721381  0.4266836399462275
  1.8726702497855767  2.2233243001068423  4.7012449535550918
  1.8947781669580739  6.1073904667663541  0.4903680879153362
  2.2925774261871412  6.3290263935154121  4.5794086958572686
  6.0172380847089109  1.8174019025068866  0.4713015570671274
  6.4914757840659565  1.7687648722759477  4.6935305257145279
  6.0574410687980658  6.2252456867682042  0.3019628884658777
  6.0137986967369077  6.1487193730279737  4.6105941402429513
  1.9149918133095927 -0.0247921335133680  2.5775871508014143
  2.0949256959451215 -0.0816725809447367  6.4492135337631868
  2.1909504489778646  4.1439838755207443  2.3359220912379706
  2.2929804816409378  4.1310029893386329  6.7241208021390593
  6.5728404769321918 -0.2388255951816933  2.6012177381697330
  6.4815964939534556 -0.1436714072171763  6.8440382089195291
  6.2942530891863724  4.0296008137979626  2.3121039014304525
  6.5243752941974220  3.9357373792341321  6.7328830602359799
  0.0092501054579155  2.0733073662215169  2.1804078566974492
  0.0983331732908258  1.8268029609657535  7.2355489850539243
  0.0578636732607761  5.8528521420136572  2.4666121008978119
 -0.0257370546638866  6.2829855783476436  6.7215803642290233
  4.1608809735259955  1.9669266011563118  2.7190783391887559
  4.1619271209789250  1.6660206264327098  6.6437530683371442
  4.0846541955954132  5.9755242706895570  2.5092255174778715
  4.2111940406871149  6.3078753185517149  6.6480446894821679
  3.0128001917845295  4.6013025952774376 11.2289455643798366
