Ba Zr O  H 
 1.0000000000000000
     8.3840000000000003    0.0000000000000000    0.0000000000000000
     0.0000000000000000    8.3840000000000003    0.0000000000000000
     0.0000000000000000    0.0000000000000000    8.3840000000000003
 Ba  Zr  O   H  
   8   8  24   1
Cartesian
  0.5979287973697325  0.3923777303255930  0.1422899669701939
  0.6381092530943213  0.3166501828485491  4.2768218744305617
  0.1436127778664857  4.4944762032172658  0.1655402046763911
  0.2496428911712602  4.4844114034377816  4.3733861543639714
  4.6325803274110520  0.2886857111538204 -0.0567007052584374
  4.7959919387338807  0.4604935548884094  4.1272816617888752
  4.7346341274494828  4.3988036493196887 -0.1007266760053979
  4.4643433261153742  4.4360077613619024  4.3031935837309581
  2.6354302630273017  2.5089869930047737  2.2465463729154740
  2.7050215718076500  2.4210075213520055  6.3958185162627501
  2.4949013188718872  6.5354691376389145  2.0178411594702790
  2.3365669753255633  6.5920930206565052  6.3752325611082465
  6.8057971358001748  2.4355294656977553  1.9186551253904207
  6.9212582965435256  2.1741537229589083  6.1546213066409639
  6.7236676233969641  6.6241436404756788  2.1369916237784068
  6.6396970111126361  6.6019669555154721  6.4513298800936294
  2.4215209934677731  2.2136614635034007  0.1065876789568325
  2.7994995840542378  2.4155654907384712  4.2921895045418248
  2.9260861323986664  6.4393870698664291  0.1273621169695706
  2.3110144392086194  6.3087029292117691  4.0789164964077935
  7.0485622609353982  1.9088512713619574 -0.1787739681931183
  6.6280733146492850  2.3378726957784433  4.1238069811825939
  6.0481419222548825  6.5621312838006087  0.0243844686050677
  7.2874664926732740  6.5123235557873960  4.3721457884679689
  2.6186059335513665  0.1936395783681605  2.5165096420114410
  2.2739668056370523  0.2856050632790582  6.3526297080819454
  2.6018003175089839  4.4281449584874002  1.9591460404400194
  2.3383148421790501  4.5037825273486138  6.2827016220703857
  6.9982939637427428  0.3586697909860087  2.1726761191903221
  6.3325577419360162  0.1853502989269721  6.1933831371954176
  6.3135044530263356  4.3126438975086012  2.2810733636056995
  6.5657799918269886  4.4958228908802003  6.2010589900143005
  0.3984192619074328  2.3746533221057291  2.0735012534939825
  0.5026067307321457  2.3455682549392880  6.2094363922507290
  0.3681765177161242  6.4283411874544534  1.8154738504059771
  0.3575556402689040  6.4346211448765160  6.9490207479430834
  4.6398707124030052  2.0259595268891251  1.8683582624741661
  4.6320068325552812  2.5678958208953513  6.4838045978047285
  4.7928508932537719  6.5945931136137927  2.5743157022643750
  4.4225365379932748  6.6192850661761558  6.0674135427662801
  3.3060727943679216  6.7041873655747946 12.8081894494775330
