Ba Zr O  H 
 1.0000000000000000
     8.3840000000000003    0.0000000000000000    0.0000000000000000
     0.0000000000000000    8.3840000000000003    0.0000000000000000
     0.0000000000000000    0.0000000000000000    8.3840000000000003
 Ba  Zr  O   H  
   8   8  24   1
Cartesian
  0.5464376716626634  0.4519077493517124 -0.1187469029973136
  0.5254193282090950  0.3836153693040021  4.2067396696998793
  0.3668501759756914  4.5279961520985283  0.2408542755323547
  0.2334007441806865  4.4687946767855955  4.1319436241824228
  4.7062228431031485  0.3426149645408669 -0.0535048518301561
  4.6348804943711741  0.5325323193787110  4.0487950270703603
  4.7811876103162367  4.4929784341529331 -0.0533873908992287
  4.6606662006190511  4.6066268537601767  4.3237323251181001
  2.6164088318981573  2.3200410565192437  2.1092772423259145
  2.4599942509327164  2.2888617275978187  6.1875635511550655
  2.4825613096569858  6.5431856928671071  2.2080666045251771
  2.6248946651242582  6.6183870252823107  6.3426116259674705
  6.8234889642046186  2.4272843514983351  2.1331609720673761
  6.6671022901074579  2.5036746171354127  6.2905591637371101
  6.7942963853019078  6.7345822858858142  2.0955644439005416
  6.6484645784894782  6.7229387661354174  6.2506536351802851
  2.6816208041042975  2.5131184117272256 -0.1881820296675187
  2.5026544762441825  2.0745213049707734  4.1806273715161355
  2.2339187920707997  6.7365521136477957  0.0468332674634039
  2.4182056545233843  6.5758823076951707  4.2707423966454661
  6.8712876027841148  2.6456067216255654  0.0863173997618801
  6.6862479058969599  2.2788254085457282  4.2749663929085910
  6.5730013735197277  6.5258855163655936 -0.1973301674000231
  6.9101664173666864  6.8657525588042905  4.1738082090596791
  2.5653257385092014  0.3758666556923864  2.1386191281784983
  2.5429448922218687  0.2778861872443148  6.1020626252074255
  2.4561013239455431  4.4751669617686316  2.2842908763376051
  2.7649979710144725  4.5317165904846766  6.2804143972416462
  6.7418445830702067  0.4033028730769755  1.6745994284862942
  7.2371735029410207  0.4582105776624741  6.1587482867623260
  6.5198206653997284  4.6741090203758713  2.0584755340821603
  6.5331247797857728  4.5677224210014860  6.5478345250736441
  0.5664311490703513  2.3680571721295793  2.3001901687058313
  0.4675086270670428  2.6955649230385430  6.2709642462019550
  0.3144842817538980  6.3575062964395528  2.2725653338101504
  0.3521645701200231  6.1088465517990613  6.1745192760441050
  4.7163263119694108  2.3092611205441060  1.9601155157629464
  4.7077748646427446  1.9250356930118815  6.4097445248600744
  4.4895205302826247  6.6349930691281500  2.1679725022001590
  4.7213901179310200  7.0446422342108903  5.9214608582449735
  0.6242387909715424  7.0389971666246778 14.3069507727238232
