Ba Zr O  H 
 1.0000000000000000
     8.3840000000000003    0.0000000000000000    0.0000000000000000
     0.0000000000000000    8.3840000000000003    0.0000000000000000
     0.0000000000000000    0.0000000000000000    8.3840000000000003
 Ba  Zr  O   H  
   8   8  24   1
Cartesian
  0.1361947645523026 -0.4709103411980027 -0.5874906838883148
  0.1534859132539331 -0.6569934019725047  3.6511757795380992
 -0.2569860780283855  3.9287130126639749 -0.6966924706433383
  0.0270581639766631  3.7048790907861728  3.4780902209018998
  4.2953581227517512 -0.4193759941715078 -0.6429714705093291
  4.5374567995952031 -0.3977012220292124  3.5132832818110256
  4.1264780579127311  3.8077353434316343 -0.3192144931928589
  4.1307515858144468  3.5363706766754017  3.6483117771154876
  2.2258781473472831  1.5388838507582838  1.5450242050993708
  2.1519382887850238  1.5803354437200239  5.5323640602218545
  2.0229855981143805  5.7277588875369325  1.6641872893533074
  2.1744474037347685  5.7877349346757319  5.9024462800956607
  6.4307891927844478  1.6092958917989448  1.1694254709560501
  6.2408720369179784  1.7164046647837554  5.4436706109555422
  6.1825864304165421  5.7410297765641252  1.4704764306214422
  6.2421866994267399  5.8851460393798991  5.7841006407815092
  2.4180129064989591  1.7773847726837597 -0.6449695742940569
  1.6627282601860309  1.4738438769507287  3.5477707407259325
  2.1051405875763107  5.9021547778017496 -0.5057755658793932
  1.8773695538293191  5.5188015116510654  3.5688376702068560
  6.1125263960329423  1.9113946981635979 -0.7488753493907964
  6.3969398182403054  1.5110950524411559  3.2211233988690338
  6.0532798454737256  5.8942127113326617 -0.5841422047540920
  6.3975615672864574  6.0563069403688106  3.7117611320915267
  1.9601126398844255 -0.5721169382141741  1.7087839231230051
  2.3971785470699274 -0.3818131108383068  5.8757861219856693
  2.1497143484906234  3.5501881493396130  1.7730910964630389
  2.0945510986615501  3.7690237020886568  5.8209823766240643
  6.5019364871585470 -0.6769510991689376  1.5809914532334473
  6.3008796175485235 -0.3169700127428378  5.7367616529635619
  6.0936638190593957  3.7405291458262688  1.5222481627409630
  6.3903543695923224  3.7034431531512841  5.1804849987554951
  0.1869885233854233  2.0474201912761214  0.8479012220869132
  0.1555455945476424  1.3583012525954108  5.7355363683986811
 -0.0570915365419193  5.7896809194583314  1.4089140493820600
  0.0340542524784672  5.9583332746567539  5.9069931555507864
  4.3501290051686619  1.4634962964479683  1.5315268326160951
  4.2895870781767576  1.7036409548373643  5.4532997527889622
  4.1269276279380831  5.7327506654290099  1.7819245099218457
  4.1693614607721878  5.6306522556800154  5.6146447934511281
  1.4637255671496057  1.9654721173185716 16.1619619848489293
