Ba Zr O  H 
 1.0000000000000000
     8.3840000000000003    0.0000000000000000    0.0000000000000000
     0.0000000000000000    8.3840000000000003    0.0000000000000000
     0.0000000000000000    0.0000000000000000    8.3840000000000003
 Ba  Zr  O   H  
   8   8  24   1
Cartesian
 -0.2149888801585058 -0.6466077360937743 -0.5852383345444597
  0.0631143602735022 -0.4062061461886786  3.4661231202153844
  0.1609759916137609  3.5585842765125455 -0.4473125104031265
  0.0059471299754683  3.6352219495620361  3.4629527953241750
  4.1247960158473056 -0.3509448320516631 -0.4843042615106734
  4.4164715113825004 -0.3762060864091119  3.7137611369716255
  4.3732048831868067  3.4637918970917920 -0.5636880754357397
  4.0708129710024323  3.8491209776245130  3.5473322056275500
  2.1299814940330704  1.6173156227872767  1.4795951990872016
  2.1164147570660701  1.7309113287872187  5.6376817930838561
  2.0843742340633118  5.7617585666591857  1.4482667260790925
  2.1623798015470932  5.9779955532163545  5.6804500080877718
  6.3808410352423213  1.7392816293918036  1.5635187551518925
  6.4165827119404701  1.5972846904878011  5.5801968056216218
  6.2383383619266359  5.8225623939033406  1.4358344486944332
  6.4318225335047412  5.7231483524043165  5.7077460952596599
  2.3027225276179273  1.7126667593632217 -0.7202929924821007
  1.9825978815549907  1.6727895842238645  3.5486347625605887
  1.9235801033549691  5.6203283690848602 -0.6904593100674054
  2.2762751127254388  5.9130666729690349  3.5294622349815779
  6.2012036205666270  1.3898190146800693 -0.6206314039612049
  6.2452495867739977  1.8061727486041166  3.5011150099078634
  6.3696445371053709  5.7969928146690366 -0.6581709615444282
  5.9264897221815742  5.6563019160108086  3.6480850943919587
  2.0168398153445533 -0.5422727647168665  1.4223005045845052
  1.8650064636019206 -0.3368380465546519  5.7121450877866833
  1.8977838472473221  3.6504804506523971  1.3690930206448542
  2.1217642647652912  3.8649038903605311  5.7167216061507284
  6.3238871446617821 -0.4611711916696646  1.5827601180158342
  6.6222755193596585 -0.4029782997134705  5.7939044563778017
  6.6413161440561188  3.7842822576761774  1.3423772066194368
  6.5357483751062651  3.6410660826221193  5.8184546764648148
 -0.0227161141586924  1.8299994886990363  1.3866884665844939
  0.0066078286015214  1.7413891472394292  5.6423535141095424
 -0.0347092296266450  5.9062476717658141  1.5693727227133187
  0.0791556798944384  5.7578207186622405  5.2947853545933521
  4.0653649230648021  1.8301286492641324  1.6854716749693577
  4.2815450297919044  1.9331531905187347  5.6906030992758678
  4.1579483509800417  5.7998957863020131  1.1363455044911170
  4.2229887861751925  5.8736711738565024  5.6822857241162081
  2.4593990660123430 -4.1671821346968452 15.1052252579192512
