Ba Zr O  H 
 1.0000000000000000
     8.3840000000000003    0.0000000000000000    0.0000000000000000
     0.0000000000000000    8.3840000000000003    0.0000000000000000
     0.0000000000000000    0.0000000000000000    8.3840000000000003
 Ba  Zr  O   H  
   8   8  24   1
Cartesian
  0.0572101204401391 -0.1919661190152475 -0.2606063831467412
  0.0080219611720708  0.2241273959701849  3.8965933954915073
  0.0114809129093806  4.0623337242183490 -0.0401426310862152
  0.0670114989144249  4.3325047341493184  4.0817754115983416
  4.2100881876901575 -0.0607856053487278 -0.0359254737388844
  4.3147373444449437 -0.0215989873883740  3.9983837223147809
  4.2424573447993232  3.8529935633705890 -0.3680740443871147
  4.3031014443881839  4.0847412472640174  3.9640764853448403
  2.2623079544353017  2.0245339170953369  2.1112175526908512
  2.0128750161414546  2.1340845017287053  6.2898537178491489
  2.2577092306024524  6.2483346839796559  2.0935999531023142
  2.0318558546046162  6.2408344337316208  6.1988928374821732
  6.4776914297575434  1.9563843443188913  1.8955153832496785
  6.4295408972457979  2.2439029458336570  6.0950674950546677
  6.2985511218119319  6.2286277011383246  1.9531691505311832
  6.0843417485687175  6.5319851215732045  6.1850810933978897
  2.3531396395465820  2.1539964292619795 -0.0439166878368454
  2.1972657991199744  2.0196195359290785  4.1310210580914291
  1.8802298623788689  6.3460060353692853  0.0307415832183881
  2.0278667278773037  6.8061959437870110  4.1913642335035934
  6.1207797939540303  2.2843476692112725 -0.1544567027856150
  6.5190675120418051  2.1999154070685654  4.0223704313700264
  5.7556528217724612  6.2077821714702965 -0.2232771877522057
  6.1045228716741677  6.4861878888106315  4.1476312533235129
  1.9732182766196324 -0.0604946527571074  2.0501584276469451
  2.6034654236304120  0.1397294163169104  6.3890454650375181
  2.0869768918978329  4.1519007401297907  2.2395380795504067
  1.9191788484365124  4.1422171662516201  6.0838897429573207
  6.2150897393911384 -0.0872085986761911  1.9362399296410149
  5.7387928263294778  0.1603879929138450  6.1404084706553812
  6.4781869127467733  4.1338147819632614  2.1434241486268153
  6.2728556449585238  4.3241561689395152  6.1141991863685394
  0.1208594845711385  2.2407539850838791  1.9396540576522465
 -0.0045211067660076  1.5270844710850540  6.4975582773169291
 -0.0671299860229822  6.3043451794025733  2.0095282539117694
 -0.0947634902378552  6.6585503653188942  5.9764207276914183
  4.3910361950852357  1.9709611604589070  2.0654935473520011
  4.1657598885459679  1.9883934620023733  6.1001328791551535
  4.1670871892210499  6.0304656049148724  1.7558651305171640
  4.0476593233799250  6.1913250928842851  6.0636582547773150
  4.1582624056310884  0.9654258644336918 14.5279473209224168
