Ba Zr O  H 
 1.0000000000000000
     8.3840000000000003    0.0000000000000000    0.0000000000000000
     0.0000000000000000    8.3840000000000003    0.0000000000000000
     0.0000000000000000    0.0000000000000000    8.3840000000000003
 Ba  Zr  O   H  
   8   8  24   1
Cartesian
 -0.4670430596273057 -0.0155684569879429  0.1644336888042950
 -0.3177253804694639 -0.1859570860168931  4.3253676262791059
 -0.1271665185634581  4.4010662942557159  0.2280747673744326
 -0.2039998587611789  4.2291459819849351  4.6310861430245183
  4.0786027060608374  0.3024776573954347  0.2508422690580185
  3.9617512507413690  0.0343343104980290  4.5135738605158062
  4.0483412498692264  4.4008264960820513  0.6852618742998474
  3.9854035314371732  4.2143697159968543  4.5765424179092244
  1.8334619329554764  1.9272949265118249  2.3300358679158579
  1.7579689530476226  2.2018236041528172  6.5859642617266561
  1.7581339668299067  6.2542172191020828  2.6865769102330734
  1.9573342338479698  6.4299834142371841  6.8112301791429406
  6.1189517535717179  2.0617214077156127  2.5544435390290881
  6.1720418982671728  2.3074454779863536  6.7183137133973228
  5.7918534594932662  6.3400962086109116  2.5309868649189191
  6.0568731463910694  6.4270988060210819  6.6078940332837224
  1.9144971021683683  2.2760243203296415  0.2746847556363807
  1.9920696903696082  2.2605429573853870  4.4691853591529522
  1.6481865259036170  6.3580122302090558  0.4634093828668521
  1.8083099010002046  6.4115528562966322  4.6175253740601816
  6.3497442220524389  2.3264466329004017  0.4997309556680044
  6.0364022341449770  2.2873020308288972  4.6048286572334449
  5.9771579301585458  6.2947143036954314  0.4620202701325307
  5.9901807521976069  6.6717223012742721  4.6420730434823430
  1.9467825302997053 -0.1278179343148384  2.5300301063478998
  1.5676100929805983  0.0640706359541157  6.5146718573196285
  1.8365318714464292  4.2794683545752177  2.4434380688325921
  1.7562518244147389  4.2890789887125189  6.6006918398522538
  6.0469369765309491 -0.0351401318862664  2.4391041981850052
  6.2921237812560662  0.1173364113737415  6.7566517058811568
  6.3663428776951578  4.1433303347930126  2.9559957562886070
  5.8546587534489536  4.3290776012559427  6.5820334955107436
 -0.1135332451261995  1.8353488142137366  2.4111988352720459
 -0.2822141662412914  2.2575393676244939  6.4047195247492095
 -0.4717067971641799  6.1192920840038498  2.4441850607633917
 -0.3054986452018117  6.3916108471199280  6.7774732915823188
  4.0407727499615262  1.9155648651734720  2.3964000168561532
  4.0848698636465084  2.1077841681727363  6.8201033307557948
  3.8703338225009936  5.8918115801438287  2.6247124211570516
  3.9061216419262053  6.5238288384475140  6.3622329961187525
  7.0425961818242202 -3.6765718018378579 10.4968682102047577
