Ba Zr O  H 
 1.0000000000000000
     8.3840000000000003    0.0000000000000000    0.0000000000000000
     0.0000000000000000    8.3840000000000003    0.0000000000000000
     0.0000000000000000    0.0000000000000000    8.3840000000000003
 Ba  Zr  O   H  
   8   8  24   1
Cartesian
 -0.3776434908345718  0.0237222759588323  0.5282978851168610
 -0.2313167814865430  0.0584272114141103  4.6669675323344402
 -0.1651328210197620  4.2474523403905469  0.2614743084307586
 -0.3177239122405174  4.2516829553887554  4.7679310747693409
  3.6617106424522077  0.1419422951354560  0.1235314867759511
  4.0793815970398928  0.0757948130434519  4.2697734996470524
  3.9565559992004582  4.3548256951170261  0.2164216106414123
  4.0298332930305385  4.1805268469855461  4.7092583981039846
  1.8531120825389609  2.1923037846345750  2.5399507155481471
  1.9436937761732322  2.2092128909715840  6.6355346527657160
  1.7978071147661498  6.4923073283833848  2.5664700260143287
  1.8368400326248624  6.4029913787220414  6.6962973224683431
  5.9579325584676495  2.0551553135955976  2.4839276201354381
  6.1629782446749788  2.0657525296672286  6.9049097870489833
  6.2670400042637375  6.1200506276128754  2.3259032180069381
  6.0293902117263629  6.2822385677822492  6.5125164239148221
  1.8233384180456200  2.6076439814147485  0.2625359841146305
  1.8563008564084247  1.9856407571043575  4.6223766802991006
  1.9953252207764369  6.3561126148043732  0.3260283972596880
  1.3672811889994461  6.5807191409624357  4.6183362937276504
  5.9627859006520145  2.5174371719213076  0.4735900450286852
  6.1536510114975718  2.1670711652322181  4.5719645536390532
  5.7643166012168416  6.4898201706013134  0.3994663935039660
  6.1088336295271981  6.1364541319621564  4.5518403741747342
  1.7846063429339800  0.0804466134005228  2.2755373591691685
  1.6436205473698009  0.1313001408902880  6.6705004738461993
  2.1495848529653867  4.3133303411693609  2.8376763341130342
  2.2081067768693385  4.2177991276415634  6.3826390508097939
  6.3678088991693258 -0.0466328306250883  2.5909122344718085
  6.2805254375792785  0.0503224260897536  6.9747845023325992
  6.1653436453253079  4.1434214595113490  2.6049123934992289
  5.9291572964096337  4.2292726293370952  6.7455744239735083
 -0.1084447962611387  2.2478599025389783  2.1916489885170121
 -0.1258807301955095  2.2301597020498116  6.6027887762027406
 -0.1567953256946623  6.0357733596852086  2.3335118311975727
 -0.3294853993984045  6.1747758563291226  6.8300259084894872
  3.8516615194057984  1.8410633662223830  2.2186153113426217
  3.9796780973825046  2.0774201521904745  6.2822314260318235
  4.0658010498130404  6.3558994808239966  2.8247992464926157
  3.8440188452116479  6.8537510814018665  6.2727632887776021
 12.0922459733233989 -2.9398176498934960 11.2262391356612525
