Ba Zr O  H 
 1.0000000000000000
     8.3840000000000003    0.0000000000000000    0.0000000000000000
     0.0000000000000000    8.3840000000000003    0.0000000000000000
     0.0000000000000000    0.0000000000000000    8.3840000000000003
 Ba  Zr  O   H  
   8   8  24   1
Cartesian
 -0.0444631608127347 -0.4243198953841124 -0.5350697146964173
  0.3184423107033670 -0.0818996635737342  3.6539746768898116
 -0.0213613722257287  3.7178876580561959 -0.7891887324375954
 -0.0494397664104149  3.9005079607486191  3.5871269651643223
  4.0895285850074306 -0.7226710881950223 -0.4770374385610283
  4.3937669013489735 -0.5582455523742654  3.5383585027550870
  4.1474695575387726  3.4432811908640328 -0.5123764092172521
  4.0406991330327093  3.6438103534933184  3.5847509174391670
  2.1407270790960946  1.5278005299851543  1.4610721780236144
  2.3632695153563805  1.6222400551580789  5.6119452029176626
  2.0532337921330255  5.7507538663360531  1.3091065172191525
  2.0504223337962695  5.8024531424366774  5.6118014466088608
  6.3705300653989863  1.6532683863256437  1.5821235028918303
  6.4655470709003220  1.7569553130005906  5.8248509005471556
  6.1241178402738807  5.7551708373424679  1.5681325139754205
  6.3277254630863000  5.9474740234809369  5.5466276507356653
  2.2531560179107415  1.4722253211732448 -0.6702968473914980
  2.1518866615957517  1.6018358990477279  3.5383147405446738
  2.4201844530637335  5.8159209865620962 -0.7212666256882327
  2.0623167900288282  5.4420692544075413  3.4420138379553995
  6.3648184239931727  1.4549070993784516 -0.4990773251830326
  6.2426143306734465  1.8994462102804321  3.6755143147585967
  5.9939109942833060  6.1164328918677153 -0.7061817009323965
  6.6783423138600790  5.9420675517768657  3.5265270994748157
  2.0421670963588641 -0.4983473525320414  1.4418735402128313
  2.4972545446840044 -0.4702279914323614  5.4295859558591157
  1.7878433117630761  3.6288912263124047  1.0622583840164559
  2.4146383171316343  3.7719843102422019  5.7862010930091357
  6.2914214236185195 -0.5087379244612297  1.8446516243502358
  6.3588329502287841 -0.3336104010135606  5.4637312037970869
  6.4292945763412117  3.7415942894830510  1.4358560040724266
  6.2582951171736765  3.7678090705559755  5.7455099655277753
 -0.0144326893610254  1.5555847474391369  1.5427927984216498
  0.1656106268257196  1.6328287153168979  5.7569637048221072
  0.0331000558827877  5.8039361569977457  1.3471309511860325
  0.0640786136741366  5.9848552235504071  6.0640592878521540
  4.0551516591430818  1.6681913344157051  1.4729931689184783
  4.3473815078199092  1.7353990814511246  5.6660454670809486
  4.0998192088767542  5.6826936201223734  1.8774014926714779
  4.2951239366233604  5.7725897885173225  5.4605309988947708
  4.4811518302369322 -3.3786842637586516 14.4700150726933447
