Ba Zr O  H 
 1.0000000000000000
     8.3840000000000003    0.0000000000000000    0.0000000000000000
     0.0000000000000000    8.3840000000000003    0.0000000000000000
     0.0000000000000000    0.0000000000000000    8.3840000000000003
 Ba  Zr  O   H  
   8   8  24   1
Cartesian
  0.0923473867902831 -0.6623186858343701 -0.5873214281807819
  0.0652135855236933 -0.4498380648483977  3.4408656309866763
  0.1123986608123871  3.6898469364972017 -0.8885539301005569
 -0.1059351801630452  3.6017622553445623  3.6015324423071524
  4.1467934875906014 -0.5866290105516829 -0.6621964288667516
  4.2065853788582181 -0.4081318033625952  3.3852870378014432
  4.3926590583684977  3.6917128616375381 -0.5832153702933842
  4.2879023472278508  3.7010381458990298  3.6879862206334373
  2.0724852391895570  1.7795921545149394  1.6663214490716913
  2.0899475512083270  1.6663039305017102  5.5673459017289728
  1.9851727718031644  5.7994746533181054  1.3779978744997461
  2.2170778754194815  5.8564289404924503  5.7249703101076523
  6.2739601680658126  1.7783312467983980  1.5276724352611346
  6.2610657687278000  1.5418529738564821  5.8376111449455834
  6.2639344764527696  5.8993651958023321  1.7390753687301392
  6.3542114960759646  5.8066162728815582  5.8313023867233280
  2.2530532984719667  1.9533689636075142 -0.5583611473033094
  1.8489160907565594  1.5789628757865648  3.6449670059833927
  2.0780515643978319  5.6507115527260492 -0.6231372362683223
  2.2153169996191764  6.2393799754871138  3.4881534534546170
  5.9101304500969114  1.4952662018020708 -0.4353923656819957
  6.1425574813826991  1.5030525392772756  3.7971683987814120
  6.5948111827051479  5.9807368437520365 -0.5301012828921509
  6.1275540451218244  5.5473147540527936  3.7767326212206607
  2.3196029181624382 -0.2929645200629397  1.2960614099730832
  2.5014973954331059 -0.4122242034730163  5.8731360914138939
  1.9012101850170893  3.7969435061972994  1.7003857127277928
  2.1173609839650354  3.8415439374017604  5.3200515336897105
  6.1906531662207085 -0.4608514123490794  1.5722465664795244
  6.1413278917182961 -0.5298332421338460  5.6308667115837432
  6.5231460206622378  3.7584485302348387  1.5750845533261697
  6.3943875475974492  3.6257511530021436  5.8512467687829206
  0.0937599779465858  1.4546046245337205  1.2714190977412416
  0.0810097123162425  1.5031492854969337  5.8911133503364095
 -0.0621374306537263  6.0161158796832330  1.4600384829645170
  0.2134927026074827  5.9087131857721609  5.6789426244641898
  4.2837997025945151  2.0978349577488733  1.7000494063528007
  4.1831876448218512  1.9481579268488278  5.7433654194318891
  4.2343167830528072  5.5357011657646238  1.4171430599451325
  4.2182985876793975  5.6091054643402893  5.7906016602161108
  2.4764082231489941  0.9954303275951036 16.4363860131269952
