Ba Zr O  H 
 1.0000000000000000
     8.3840000000000003    0.0000000000000000    0.0000000000000000
     0.0000000000000000    8.3840000000000003    0.0000000000000000
     0.0000000000000000    0.0000000000000000    8.3840000000000003
 Ba  Zr  O   H  
   8   8  24   1
Cartesian
 -0.1831397232151630  0.0268040965475327  0.4882962356340957
 -0.1533474368950911 -0.0161431165045970  4.9199109028215240
 -0.0985972005869374  3.9757865457424644  0.3765907880759032
 -0.3277356570325837  4.2340693605818638  4.3750390191666844
  4.0077294843437041 -0.0479698541099666  0.3612598405294320
  4.0528703129464168  0.1795680081410743  4.5811211373943603
  4.0218965851796149  4.0771371167518993  0.4227388269282237
  3.8217916815383246  4.1265092218247119  4.4755583422366749
  1.7222309261926865  2.3961411927300280  2.3888515963840233
  1.9121856694270556  2.2081652607494520  6.6744697581931698
  1.8497651750255499  6.5742908978239898  2.4892230591978914
  1.7734691340365270  6.4965767463199526  6.6357297986865316
  6.0373663450120114  2.2177771894805063  2.4730706634512885
  6.1089398039006477  2.1329306472384921  6.6536330094793561
  6.0608111942385872  6.2765389316615696  2.4950705207849864
  5.9115520165194093  6.4186576713442811  6.4706368557745746
  1.7114542983837260  2.2635034098689162  0.3392246052380637
  1.6246672926705272  2.1760731520341148  4.5385854819859146
  1.7580557847649119  6.7793890822188034  0.3129692551594666
  2.0273981980854332  6.6659989182061894  4.5753426943161752
  5.8351517800767496  2.3869109101938730  0.1829676649699281
  6.1223598922831357  2.1635099205469026  4.5184007701639990
  6.3018222747320101  6.4463167841593219  0.2510586063548391
  6.2903608814595575  6.7660692350580840  4.3675186535361705
  1.6137429260137410  0.1530758485889144  2.6085441368457922
  1.6066328188407828  0.1538825601126917  6.6452031411068520
  1.7936286585689962  4.4315123046460903  2.3773711456159323
  2.0222702643159964  4.3659617330316216  6.5237761174308799
  5.6990676990636207  0.1030172707205836  2.3515505012942479
  6.2959140119355874  0.0447502551527959  6.6613508404446815
  5.9595899143461137  4.2534981131733414  2.2904830236479441
  5.7523675120706903  4.2084554252540842  6.6176602331193273
 -0.3022971373104107  2.2363819643659313  2.4112445412444035
 -0.1810246236935845  2.3654822842282957  6.7940045706403209
 -0.3358018710541744  6.1570425280998178  2.3811955145541654
 -0.3732035463553851  6.2430736438756256  6.3326020484313403
  3.8109495221123688  2.3417832972971779  2.4875794495249464
  3.9927942353858574  1.8904492367902423  6.6797528437531035
  3.9392774063820495  6.3657597093291791  2.2934585325754493
  3.9098741321856165  6.4287210564943740  6.4495584789927651
  7.1591433513700222 -2.0203069838194443  8.0732950344667866
