Ba Zr O  H 
 1.0000000000000000
     8.3840000000000003    0.0000000000000000    0.0000000000000000
     0.0000000000000000    8.3840000000000003    0.0000000000000000
     0.0000000000000000    0.0000000000000000    8.3840000000000003
 Ba  Zr  O   H  
   8   8  24   1
Cartesian
  0.0425033898441149 -0.3975221926210610 -0.7160073026425132
 -0.0514938443224855 -0.2124340321723326  3.6706192722776563
  0.1724980987844433  3.5968970522507462 -0.5101302806488943
 -0.1483058521392726  3.8519047794563606  3.6169516565838755
  4.2816591103855268 -0.7428162885894716 -0.7567838751918888
  4.2890546602997466 -0.5151339363940729  3.5379822274973804
  4.3596035159606163  3.7861282764325388 -0.5064267654773958
  4.1516457979974053  3.7242228418114882  3.5063009651069441
  2.2670784980845915  1.5035573909418938  1.4692368057704897
  2.1930523665554729  1.5238637232189503  5.7150099426614203
  1.9690797710628860  5.7686122548791126  1.4191680447743391
  2.1606299283253234  5.7863618766367715  5.5790025144761710
  6.2543737287851968  1.6332662962130031  1.5653508170448784
  6.3694596140987638  1.5974045092182187  5.8068528277930938
  6.1004915136816580  5.9416886021120670  1.4253178790895771
  6.5118949592288127  5.8094521247449356  5.7726330437130180
  2.3046724580236200  1.0370918798271547 -0.7102387489312575
  2.1304951910444054  1.6897136230646113  3.6406495798254581
  2.2092196238361694  5.6571605473331168 -0.6845687083569472
  2.0083575155246449  5.6429159315861988  3.6003801049850894
  6.4259187899930081  1.4709008154798988 -0.4218465880568807
  6.0556511606109984  1.6450322507005390  3.8256037786655899
  6.2390126612384904  5.9665513785652804 -0.6467680416281847
  6.4590890887952082  5.9565182176325111  3.5651237488292424
  2.3208708291653770 -0.5115814127090867  1.3773596320446311
  1.9494565916168696 -0.3725114380735166  5.4506879719361798
  1.7946961601506577  3.5913898936540130  1.4021950637644156
  2.2465397685929527  3.6199996850459280  5.9551353501651461
  5.9280981472763479 -0.4036366659488253  1.5546771549682590
  6.5654113742755804 -0.5503324604942156  5.6660992748166290
  6.5126535209710052  3.8742606236864758  1.4834722706431216
  6.0452813882974565  3.7028470177732067  5.8136879102546581
 -0.0527393691591118  1.5479708261428049  1.6933387467064163
 -0.0001585889784682  2.0138722412503198  5.3717845598541905
 -0.1625461817005975  6.1538788684322805  1.2570052524236317
  0.1986524747009936  5.6627798461198147  5.7600738869446495
  4.2263187585636439  2.0335422395781180  1.5040674173124686
  4.3063464741571558  1.6894800195463358  5.9634234154978154
  4.0917194230608800  5.4873085542182478  1.6728716019521455
  4.2419321067996503  6.0591171133353585  5.4731299670145832
  1.3428448480777484 -4.6319314259091122 13.8277335975967741
