Ba Zr O  H 
 1.0000000000000000
     8.3840000000000003    0.0000000000000000    0.0000000000000000
     0.0000000000000000    8.3840000000000003    0.0000000000000000
     0.0000000000000000    0.0000000000000000    8.3840000000000003
 Ba  Zr  O   H  
   8   8  24   1
Cartesian
  0.0665175953169596 -0.2781339601639484 -0.5822489095368339
  0.0151532569717742 -0.6747101859162432  3.5273646301023946
 -0.0742178016087438  3.8918341807638441 -0.7370263394286365
  0.0375545174631502  3.5395677438662290  3.5541246727154627
  4.1847802127021945 -0.3605271257645726 -0.3906762052160888
  4.2745753292019089 -0.6861899830141828  3.8242076622933792
  4.2296338816960644  3.5959806643096464 -0.6537624480162766
  4.1791675021552575  3.5729626452211889  3.3421920970800456
  2.1344338628785180  1.7033185048023540  1.5860886626277113
  2.1572783919582714  1.8024955620583896  5.7783381187856291
  2.1278071036126960  5.7512255708733351  1.5462060319930198
  2.1571712578703228  5.9164070939318725  5.7145438958476991
  6.3601707826143645  1.5231028652210397  1.3146044080301045
  6.3033345738875228  1.7670485875130049  5.6075307465889557
  6.2749838301678089  5.6462915840820722  1.3946510718983298
  6.4722665334980318  5.8746433560806359  5.7649379602085098
  1.9859392846644179  1.7504788370050874 -0.6745652070832684
  2.1449037149340642  1.9571141380102728  3.6783943051625503
  1.9122437373861103  6.1884734581145757 -0.5225404691775049
  2.1454221101177589  5.8204287791297684  3.6408401194456204
  6.4739370943542687  1.2594523956418957 -0.7254528310363988
  6.5787237999904002  1.8214726036364044  3.5815446197628265
  6.2963348780025896  6.4612011745883136 -0.4258375052642165
  5.9648710194323460  5.3474284435011441  3.5565198100943713
  2.2389025171003585 -0.2134451163032218  1.6172882939917979
  2.0913810520726481 -0.3219886515008921  5.7426217650982210
  1.7081554742768570  3.7039170303779674  1.4368355506602717
  2.4160670419305572  3.8791785581463381  5.6459351760593757
  6.0905040930694732 -0.5583429502003584  1.6712782063037344
  6.5804559417006852 -0.4883285152026932  5.3967172379363895
  6.3706454479997960  3.6735933296436283  0.9670320547325302
  6.2037687066071774  3.8171675638187836  5.9156284620476081
  0.0542503694133983  1.5246695471534903  1.6013580741356832
  0.0205317719448483  1.9894767891849079  5.6834705804681738
 -0.0145331451121516  5.8925867273191033  1.4435677807269978
  0.1438001371330949  5.6097417136168906  5.6998950523863430
  4.2109871394664147  1.7180855002265261  1.5772527539535766
  4.3255427799884556  1.9202515059408560  5.6905317362214918
  4.2333345294579603  5.5206429912326840  1.5310750230793153
  4.2111037694981848  6.0910643721392557  5.6731859910692304
  4.6027117750989772 -3.2004643459434723 13.5876669266582333
