Ba Zr O  H 
 1.0000000000000000
     8.3840000000000003    0.0000000000000000    0.0000000000000000
     0.0000000000000000    8.3840000000000003    0.0000000000000000
     0.0000000000000000    0.0000000000000000    8.3840000000000003
 Ba  Zr  O   H  
   8   8  24   1
Cartesian
  0.0030630880390442 -0.5302778259907510 -0.5921168900144358
  0.0700960369523347 -0.4900186248384893  3.6465015263330010
  0.2077994040231372  3.7728336971340530 -0.3109449278400498
 -0.0812051988670822  3.7163893591606487  3.6151575445942998
  4.3871951893394510 -0.3112955255473935 -0.8099044212396874
  4.0578568191216418 -0.3068168356508320  3.3370151800840149
  4.2995150157089075  3.4892644605260137 -0.4950620675918277
  4.1264840823719302  3.4327367793554928  3.3436104454470050
  2.0991420407462833  1.7361401247050794  1.4875012257871265
  2.2167081524341437  1.8059136998841285  5.5786995165305155
  2.1838518906275017  5.8936975901254538  1.4100449688635219
  1.9133306390843370  5.9452997557698231  5.6576459769054930
  6.3320353536549350  1.5769502939247289  1.4620989387117460
  6.4317525495072001  1.4808866473809372  5.6650862271653946
  6.2346763769667302  5.8482420492952860  1.8740783841519264
  6.3470611438825424  5.6901511894357846  5.7085788596480178
  2.2643599459070765  1.8870953572784332 -0.5922620379284700
  2.0662174121459733  1.8285534455720212  3.4319155926586831
  1.5803069129059073  5.9243450654453502 -0.6462845072425207
  2.3178315726818619  5.7493984069650637  3.5093970693404040
  6.5378146505164390  1.4574162865440661 -0.5653055123609568
  6.6821982893797571  1.5046770096927939  3.5806644749799985
  6.4735394957250927  5.9826776548778229 -0.5158632749978472
  5.7421791735994026  5.7104844302984903  3.8026867473183064
  2.2089979269055893 -0.4491802642478764  1.4493077146761246
  2.1525090084977947 -0.4354052025480618  5.4998889797469293
  2.1950165406057511  3.7230537206927572  1.5735340681151739
  2.1362690201368433  3.7131536891736849  5.9713731383713817
  6.3265022559555781 -0.4320073483811307  1.6887414465467374
  6.4257335517122858 -0.5861902782806390  5.7424940239677493
  6.0239644288994372  3.8890890109985743  1.7948607865186905
  6.5198069167205928  3.6537688811503211  5.6426146520453937
 -0.0115098652808439  2.0320082829459758  1.5688005061819876
  0.1454815058279884  1.4218503094009967  5.7080299011650997
 -0.1103315167661277  5.7894753614484271  1.5723543248436447
 -0.0307945293569819  6.0135040559226614  5.1641797547589210
  4.2502735320361280  1.4380757283553878  1.3654791913789328
  4.3663918155099966  1.5774691347589962  5.9532799692045781
  4.2356477829047039  6.0340405053254891  1.3725326788065426
  4.0250010105232974  5.6503388988567211  5.7803923807594826
  4.2130292640869591 -2.2183245630985073 13.1833115662370108
