Ba Zr O  H 
 1.0000000000000000
     8.3840000000000003    0.0000000000000000    0.0000000000000000
     0.0000000000000000    8.3840000000000003    0.0000000000000000
     0.0000000000000000    0.0000000000000000    8.3840000000000003
 Ba  Zr  O   H  
   8   8  24   1
Cartesian
  0.0017098992452166 -0.3621643458215639 -0.4981667092649403
  0.0976840960290361 -0.6044299838407668  3.6975106256465109
 -0.0022837344763035  3.8935631707508369 -0.6382301691712182
  0.1686446561432074  3.6350800554508531  3.3764368160701355
  4.2762851252769698 -0.5422506761087540 -0.7284466185312127
  4.1608963256652602 -0.3898762316971831  3.3574694028042456
  4.0945312255403028  3.6654643758979555 -0.4080593220525296
  4.3238635586339065  3.6401894250711377  3.5964614945839126
  2.0815702099573610  1.5512158370331866  1.4711519322624320
  2.0919653860708562  1.5919147712642878  5.7140941442229076
  2.2624070497540916  5.7607287467685673  1.5702686912689554
  2.1318478736761670  5.8606293262985938  5.6893776736764687
  6.1944579852713604  1.6302233991990587  1.5428722617931012
  6.2594109675271783  1.7425321437436136  5.7940755858986890
  6.3663374155121772  5.7277075558352211  1.4996763456481053
  6.4023322308801891  5.9681101204199472  5.6296389063135841
  2.1654588523471006  1.5688341418611933 -0.5700710445571875
  1.7695371571164635  1.4232713025744641  3.5708792455983560
  1.8406420906378107  5.6979963994123688 -0.5880892565594273
  2.3817754264803614  5.7999924392795954  3.6036573042682485
  6.3150817202512091  1.9954509616021459 -0.6145405178923603
  6.4345441102016352  1.5957881162141403  3.7778736705474456
  6.1322903163062010  5.5112052179964257 -0.5773352849806712
  6.1264317407128397  5.9994787010441684  3.5914012745743111
  2.4223286541680009 -0.6027477710659215  1.1648680705362455
  2.0153909098244522 -0.5578747355849781  6.1134574626521321
  2.0211388696653287  3.6413484754538223  1.3920713313362763
  2.1508702792509746  3.6741047618135676  5.6469258071350525
  6.6266207366632139 -0.3898635366032784  1.4697510282994091
  6.3233476638674135 -0.3992622145810546  6.0974068667610428
  5.9586902106326063  3.7727483677520324  1.5108983191106407
  5.9110792593049712  3.8784160422222724  5.4191790821564378
  0.0529179335295341  1.7580295635311474  1.4593982255031264
  0.1056348561576462  1.4604514428168238  5.8244231471899779
  0.0532312288247264  5.7376812738206286  1.6637930732452866
  0.0376862088916575  5.7120814925120200  5.5347978152574564
  4.2197286196771540  1.5881462864749314  1.5047439870197801
  4.2052288414578261  1.6680868846508006  5.4111092914076675
  4.2599571219363934  5.8849538647279074  1.5908305241092651
  4.2810230074735118  5.9765697820450079  5.4044866496946851
  4.1621297183371659 -3.3666735082554862 13.8301921856876451
