Ba Zr O  H 
 1.0000000000000000
     8.3840000000000003    0.0000000000000000    0.0000000000000000
     0.0000000000000000    8.3840000000000003    0.0000000000000000
     0.0000000000000000    0.0000000000000000    8.3840000000000003
 Ba  Zr  O   H  
   8   8  24   1
Cartesian
 -0.0947758844525693 -0.4844339725354208 -0.4458124517797755
  0.1493699858133816 -0.6026279256263556  3.6131581275584410
 -0.0268306347442745  3.7682679191554627 -0.5729430876706505
  0.1465116741602542  3.8424136514100833  3.8859283794037944
  4.4055960196647534 -0.3329784883430283 -0.5075487097481444
  4.2507120804942762 -0.5967960487007336  3.4562603905232350
  4.3714040816416073  3.6797660905082870 -0.6956656927331316
  4.0134452437705850  3.6856361476637973  3.3718950492189492
  2.0170201919775259  1.6335387820334635  1.5314278898715770
  2.2954342486801633  1.5373589878835268  5.5973217953193091
  2.0646038831891813  5.8473549304614405  1.4384110634681337
  2.1837963200298671  5.6684127485510576  5.7435948007857114
  6.0660294901431877  1.6026550213373081  1.5012215783167198
  6.5765994588475998  1.6791348756347917  5.5093229026060477
  6.1704557813781244  5.8358437972687636  1.4993758213877593
  6.1867290498439091  5.8666302930038947  5.6177325985982121
  2.3513301634470936  1.6273843828974202 -0.6419463047222009
  1.9640972516700588  2.0280194593793492  3.4593651750605843
  2.4226284768119988  5.7814677794677660 -0.5994098430448832
  1.8361955993261976  5.5505819020554004  3.5184703275513711
  6.5564337793350314  1.9428892356961618 -0.6490149082116189
  6.8832266699391198  1.3779297452583974  3.5310492725586515
  5.7836051430780389  5.8389612970249880 -0.5399293909459872
  6.3778144018039269  5.8771910287033275  3.6931871712829074
  2.1884229430220299 -0.4040952660989909  1.5988935996191449
  2.4669671610194208 -0.4870828006198817  5.7299751923436206
  2.0089887235213579  3.8218409787683787  1.2363184849419442
  1.7802865146292626  3.5867723993907288  5.6623336781154396
  6.1965379693774389 -0.3254970077308859  1.5790975955723572
  6.3987351262812302 -0.5388648673416132  5.8609726457925921
  6.1750503891075663  3.8463750671411496  1.6704992600378217
  6.4654029832490911  3.7504796811912122  5.4084339574204447
 -0.0999330319027178  1.6303282838260686  1.2917580789601573
  0.2712287025831090  1.1488048003665843  5.8795771068618121
 -0.1088982759093553  6.1020993126165282  1.3372928036633902
 -0.0647569621608712  5.9770653512766545  6.0456872651548839
  4.0984259673653742  1.3873132396823060  1.7381486296481083
  4.4851532575786344  1.6708885187432099  5.5983383128864563
  4.1415108976866772  5.9481546508818131  1.5222861819842495
  4.1253789042213347  5.7323434093053836  5.3537989424160735
 -0.2766583230813722  2.4653833589140146 10.2968730604441063
