Ba Zr O  H 
 1.0000000000000000
     8.3840000000000003    0.0000000000000000    0.0000000000000000
     0.0000000000000000    8.3840000000000003    0.0000000000000000
     0.0000000000000000    0.0000000000000000    8.3840000000000003
 Ba  Zr  O   H  
   8   8  24   1
Cartesian
 -0.2171572725506795 -0.2131472667529294 -0.3427809386942649
  0.3368082239625523 -0.5451604127960161  3.5418231315813169
  0.0886479553881744  4.0290654362991729 -0.6585612580724031
  0.1790322244566643  3.5418245685397136  3.5319387692030015
  4.1920314135086629 -0.5250220141990618 -0.7173018211744504
  4.1200427960624344 -0.5044287380198158  3.5394954943326149
  4.3774454824993887  3.3942403704615747 -0.5107185660568233
  4.1612732716792573  3.5635946897691806  3.6201999357650871
  1.9117325695759191  1.7257773648131842  1.4332130666974929
  2.0396607862824472  1.5539144129779132  5.7078287647873367
  2.2733759653063905  5.8299459259438429  1.4308828800209599
  2.3794375106493622  5.6083704353802579  5.6694986010425552
  6.2478893219405522  1.8191417716761038  1.6149820109203492
  6.2225916626745299  1.5745248682163806  5.7258884872890210
  6.2701747024944350  5.9187816338116956  1.5479101418769632
  6.3005612005501961  5.9059773030378606  5.6495513064711966
  2.2190784473303937  1.4080280635667977 -0.5771923799154919
  2.0996320712403831  1.3372682837517047  3.5091051524713062
  2.7223103811315892  5.7730939007008413 -0.7572938034589966
  1.9817906312820948  5.5338495851427485  3.5176540984063562
  6.6587948585900882  1.9703569704586230 -0.5886527017055632
  6.0851685936359310  1.4018645612521030  3.5836313553342376
  5.8236123692706210  5.3899978605181627 -0.6625595527959144
  6.4235251304311927  6.0088517058347160  3.5266331233488679
  2.2889604666940584 -0.4121614557532485  1.1791605193100512
  2.0359672716273312 -0.5410913094124228  5.7851668546186596
  2.0464776057156953  3.9132690268176202  1.2825746579960806
  1.7731377916833215  3.7623583243103642  5.7541436727968573
  5.9812865029430817 -0.2838637350309562  1.3763457056122981
  5.8882512170116952 -0.4609230823477323  5.6484186871210165
  6.2289340539782430  3.7446939769181209  1.9889441042119020
  6.4721075060380020  3.5622033796081300  5.3043402975424998
 -0.0082984253157188  1.9278879112910621  1.5079644787679931
 -0.0128608841316608  1.4181183150140684  5.6746578331295989
  0.1033310548016833  6.0093763495625137  1.2190790167381003
  0.0495577258094215  6.2123040007246342  5.8641328945481055
  4.1426666560920120  1.9616281744915907  1.4765481955489963
  3.9279462978003994  1.8262447350487387  5.5065699964959220
  4.2668639712740406  5.9994864510456098  1.5587955074383872
  4.4070455606252823  5.8300995503316990  5.2864491672998906
  0.7845555251186317 -1.4362359758117025 14.2822185250209372
