Ba Zr O  H 
 1.0000000000000000
     8.3840000000000003    0.0000000000000000    0.0000000000000000
     0.0000000000000000    8.3840000000000003    0.0000000000000000
     0.0000000000000000    0.0000000000000000    8.3840000000000003
 Ba  Zr  O   H  
   8   8  24   1
Cartesian
 -0.0980082302264398 -0.3481848022048697 -0.5590185846657070
  0.2392026468004858 -0.4794283989741545  3.3772262751657482
  0.0088313525728797  3.9296774774978624 -0.5825086382224286
 -0.0229595804506031  3.7740407162636673  3.6449164001701617
  4.2539986914257266 -0.3704561209807660 -0.6944833395103690
  4.3234800713591461 -0.6275990698435264  3.4513365631909259
  4.3011108215083498  3.5660021275893405 -0.5640470790861261
  4.1265879367209441  3.6367366365173512  3.6503664456565672
  2.0614117503930465  1.5781496522858274  1.5513506863234028
  2.1255937398372731  1.5747260385824486  5.5669874309050620
  2.3652499657688919  5.8269183938169622  1.5371031483492152
  2.0557701498453742  5.4932134408262669  5.8543241594566204
  6.1951893779359395  1.6077016824832620  1.6353448532452635
  6.1949757615427838  1.7286091505806314  5.8574737952217850
  6.4001118144077820  5.7249293885766805  1.3432847801606602
  6.3059772466231818  5.9570384973403518  5.5385890196139203
  1.8105590857864644  1.4311313121025433 -0.6490198706440338
  2.1333952179782223  1.8488710742159553  3.5108031834133446
  2.4495472030532728  5.6193087270464703 -0.5967289117573151
  2.2660408780319696  5.8170504689477953  3.6785467329701023
  6.1375107504407653  1.6257853291285904 -0.5601769381404823
  5.9158544811261251  1.5455745097099911  3.6568924963767908
  6.1289895371709244  5.9608335709464475 -0.6296508362100901
  6.4110696358342443  5.9307363547224972  3.4882417922827158
  2.4475519041924190 -0.4414198914743618  1.5596656155798543
  2.1465446120702620 -0.5932209004209377  5.8061536832983984
  2.1170376608708019  3.8118435109569959  1.5914129686711247
  2.0418617848041696  3.6534550889076782  5.5839200188049531
  6.2030660291082897 -0.3901313086078886  1.2580377604691588
  6.2484021506854166 -0.4410794612666920  5.9622977972018418
  6.6497964267752838  3.6998099451335484  1.4366298488576013
  6.4120825476739771  3.9181575732078588  5.6201896499208308
 -0.0807054878788523  1.6921655668273246  1.8384086755997715
 -0.0257504144334620  1.4202496307113974  5.5465850878094720
  0.0992220023608007  5.9645623149664919  1.2432230855351567
 -0.0046068824165068  6.1185699029217782  5.6154572991214238
  4.0956429438935205  1.7468563569573101  1.4552041535224722
  4.1415943435939919  1.6705579094048075  5.9301731285496277
  4.3769558935662021  5.7065201281572948  1.9260143766676152
  4.0689854855104475  5.6441183141994307  5.6104596039016092
  2.9790844040302655 -0.8461579548575026 13.7634611812894718
