Ba Zr O  H 
 1.0000000000000000
     8.3840000000000003    0.0000000000000000    0.0000000000000000
     0.0000000000000000    8.3840000000000003    0.0000000000000000
     0.0000000000000000    0.0000000000000000    8.3840000000000003
 Ba  Zr  O   H  
   8   8  24   1
Cartesian
 -0.2744369681388095  0.1925370380094474  0.4684407758397168
 -0.3326046622039663 -0.0066274751571781  4.5195590927592928
 -0.0385580078031582  4.3898262773799646  0.5325728594204604
 -0.3045902998907032  4.3113840994277961  4.3913462942669987
  3.9464581401917136  0.0848700982571627  0.4532560017826409
  3.8613212367978806  0.0935934433966740  4.6420339900526217
  3.6836011533858817  4.3081378984246355  0.1717446254389905
  3.9984680895271660  4.2354711733452870  4.6428871925531503
  2.0143566755387812  2.1391539343811949  2.3116380166034247
  1.8526316278549249  1.8132945763845962  6.5517329672885118
  2.0470318539483188  6.2322652022121900  2.5281969853853123
  1.7332716531097239  6.1170510618772838  6.6021376511859842
  6.0759271533179753  2.3217461980845342  2.3578254805562286
  5.9963701181369444  1.9744067612504475  6.6787440482640115
  6.1776222539592149  6.6024707632809978  2.6768236972332144
  6.0325623960261057  6.1939136550158551  6.6473033066644138
  2.2127746386512364  2.0371752294648178  0.2513685547154910
  1.6451768077097355  2.0589164140653131  4.4383978293001549
  1.8863967902006198  6.3624987220928935  0.4448656231399251
  1.9314041305742522  6.3523796434394857  4.5990402576036677
  5.4861040177051255  1.9959693036848933  0.2724603992771931
  6.4684293221613203  2.3521201552321052  4.5003505563490940
  6.2471635562704488  6.7615860273638519  0.3752332795797628
  6.1494264632297968  6.4208657139467240  4.7029716835816373
  1.9034325928958173  0.1136555820735329  2.3615498269463164
  1.8783495225658122 -0.2366722660758467  6.6360985791274549
  1.9502691498408540  4.2844600547103884  2.5450785586875715
  1.7677247352526093  4.0590840898005336  6.5928456708767218
  6.1355638654617168  0.2984949601452018  2.5085916093257619
  5.6529187544176214 -0.0132153441658947  6.5345190066396697
  6.1203715721026484  4.6457380728306168  2.3677814746611663
  6.0802649629370427  4.1706062595435816  6.5117016401605801
 -0.1026559079607950  2.2374115711030300  1.8087129670535913
 -0.0960252851901642  1.8890888829316335  6.8416008717890096
 -0.0931437316456594  6.4576577265759516  2.4056704201703378
 -0.3201178899886500  6.3955508044089093  6.8078599314798076
  4.0396922570153242  2.3119635222763102  2.6942636591316154
  3.8744112984062551  2.2715743738964722  6.4894698828918926
  4.1539888006874834  6.7271943883920491  2.6455331934875113
  4.0482401020776004  6.0889177406081476  6.6871306831886317
  5.8615773669424138 -2.5076266929917015  9.1017803795922951
