Ba Zr O  H 
 1.0000000000000000
     8.3840000000000003    0.0000000000000000    0.0000000000000000
     0.0000000000000000    8.3840000000000003    0.0000000000000000
     0.0000000000000000    0.0000000000000000    8.3840000000000003
 Ba  Zr  O   H  
   8   8  24   1
Cartesian
 -0.0494693697313214 -0.5555208910021255 -0.3891427606960563
 -0.1814202228058923 -0.3098020756000924  3.5184455645076409
 -0.0767890322832708  3.5102178908393227 -0.6488484897840868
  0.0911169629618927  3.9493733406324019  3.6478328132144764
  4.4188750690852254 -0.4879247759314878 -0.6336935193036601
  4.5353330491244428 -0.5775232861467843  3.3641570794862874
  4.3734557876875915  3.6987516078107903 -0.4314017467831956
  4.0607681208314084  3.5523201383586747  3.5603130674221783
  2.0058801141372204  1.5598838573560421  1.5353369775932262
  2.1871530326429016  1.8522503946355429  5.6873436680848197
  2.0654319591583268  5.6925937562358380  1.4874492581191932
  2.1217478770758436  5.9448876813060361  5.6872294397251713
  6.1905427089982705  1.5971162830764090  1.4082639143142017
  6.4257428862007124  1.7850904109387760  5.5735514619336008
  6.2656455421851955  5.6293687784475752  1.4916233049809100
  6.4242331517725333  5.9166308324200285  5.5716318281268267
  1.9497723918758672  1.5447527531807768 -0.5422887477722999
  2.4538800128808322  1.5463391827586135  3.6225984396505400
  1.9851276405958131  6.1137392317997170 -0.5352502097891785
  2.1395669000470732  5.6863768272963382  3.5819776473077689
  6.3225318076714592  1.5942359327718039 -0.7551031076414605
  6.3485634372852866  1.7186065684586649  3.4523143475410869
  6.3154709979992347  5.7719036716525913 -0.5690761415235052
  6.0322158396923404  5.8372775371357495  3.6135694168735970
  2.0018785890946744 -0.4367716871572564  1.5253269201727169
  2.4484033490060648 -0.3880675693404432  5.8950710844132397
  1.9432646190770735  3.6354376301238029  1.4551822476973264
  1.7736627566244898  3.9065901597366417  5.9920805792774106
  6.3289364936543988 -0.6129129366747484  1.4617748164775310
  6.0209784379801050 -0.4627073888137804  5.5696689067955454
  6.4034238889709920  3.6878057508340283  1.3777475632852831
  6.5578869696113511  3.7920747410983040  5.4705553668282469
 -0.2183454765968641  1.6743699626775173  1.5776615516697308
  0.0980860520981454  1.2966864698467047  5.7510591021746205
  0.0897512883605779  5.8462420230984034  1.8742277690493021
  0.0276502102837726  6.4001620752599546  5.6672695814098857
  4.1320627513204808  1.4768588880812676  1.3002642692891060
  4.3845295548843568  2.0712761234816406  5.9147975216900246
  4.2115893069587260  5.5349810823951131  1.5878055723691333
  4.1240398944268621  5.5306973627930436  5.6623771965314971
  2.0761939876356283 -0.5057126537489790 15.2354209654817510
