Ba Zr O  H 
 1.0000000000000000
     8.3840000000000003    0.0000000000000000    0.0000000000000000
     0.0000000000000000    8.3840000000000003    0.0000000000000000
     0.0000000000000000    0.0000000000000000    8.3840000000000003
 Ba  Zr  O   H  
   8   8  24   1
Cartesian
  0.0043298081994877 -0.2071387677792711 -0.4168563954161603
 -0.0729452445471490 -0.3276285377168217  3.2357305911336187
 -0.0465797140460822  3.5814111159706918 -0.5125671525526169
 -0.0602752334961441  3.9192453637443099  3.7018333506290806
  4.3540851580614035 -0.6002345255132286 -0.5662842911985584
  4.1445877734559167 -0.6219757742062018  3.5704549660931852
  4.4371150376568016  3.7369389334306993 -0.6351541959108346
  4.1543078545848271  3.7817052849488406  3.7012163444197088
  2.2671953801090350  1.5511991372234091  1.3892435258926421
  2.0479286296084269  1.2868708953647778  5.6003263438330251
  2.1955076627808783  5.7330250833134615  1.4639009767485409
  2.2521823285423830  5.5437521164799950  5.6516939249912799
  6.3146374965082464  1.7263267941859803  1.5019989740486732
  6.1425658769755476  1.7364932613723720  5.7195308258234991
  6.4547911925459900  5.9815198467855284  1.4652354241343442
  6.3650212120468126  5.7963127236129903  5.7026006642445335
  2.2378818525894477  1.5653534672631613 -0.8618394042729389
  2.0657835509283928  1.4392289274502679  3.5919483283836033
  2.3790269720544188  5.7210273559699880 -0.7128732631080947
  2.1720001877041333  5.8252288434977109  3.5657151447847393
  6.1059834735290694  1.8445745995196370 -0.5481776421398643
  6.4729149131677381  1.4373935396959558  3.5158490893765824
  6.3687881513794311  5.8806332004168462 -0.6126779770106804
  6.5318611601602301  5.7965347266334488  3.5271585396006535
  1.8947445944507584 -0.4562529501028240  1.6098704262547632
  1.9904891175093236 -0.7735326266434414  5.8308172240386762
  2.2956943277549509  3.4913567610575407  1.4354742518108743
  1.6792784187184231  3.6484465465083851  5.5169787412805773
  5.9876069158018677 -0.4009497718486162  1.5334122566621426
  6.3097924558709488 -0.4190343395943769  5.7936333486895277
  6.3966806643716190  3.8786857099296048  1.3858248409619585
  6.3601039600274287  3.8257839394950737  5.8054612407021668
  0.0037117945908975  1.7644857058047823  1.2207994623862044
 -0.1462593767148714  1.6095464072794716  5.5650463912252714
  0.1017979492385735  5.7583390528428602  1.2150763174721491
 -0.0019472341870460  5.9936293670571104  5.8622718043390014
  4.3915468645913327  1.7216817006045944  1.6553320492694328
  4.1467820895438106  1.6962348188828622  5.6670020108505463
  4.1331143161440504  5.8902186132909087  1.7076765603612674
  4.2923538556436043  5.4400351914629033  5.6926596627723463
  0.1127780317614247 -1.3421753558213592 13.9581833277038658
