Ba Zr O  H 
 1.0000000000000000
     8.3840000000000003    0.0000000000000000    0.0000000000000000
     0.0000000000000000    8.3840000000000003    0.0000000000000000
     0.0000000000000000    0.0000000000000000    8.3840000000000003
 Ba  Zr  O   H  
   8   8  24   1
Cartesian
  0.0027511498287354  0.0295027803362873  0.3930916011173946
 -0.1589162970229976 -0.1542130138991396  4.5383853384152593
 -0.4623476551957063  4.5124561447003737  0.3679875688566909
 -0.1713533415372622  4.1209575967033416  4.8169831344722436
  4.1104903063816494  0.3401060028654587  0.3463282896139963
  3.8810854755127724  0.0359809944436806  4.5217878003576555
  4.0707041862179452  4.3362673060266861  0.2967115911084415
  3.9166375591693470  4.1417982222986236  4.6609161890182005
  1.9272749100564275  2.1460672950354733  2.4934772696101413
  1.7894012224690992  2.1331211413540809  6.6138889810769239
  1.6862157034133753  6.2433991951126204  2.4436956362364821
  1.6895876988590131  6.2481752348394002  6.6491779946023106
  6.0667816690857785  2.1399183873743515  2.3974913032256162
  5.9977196734457818  2.1855870220394680  6.5249895964074005
  5.7926392029637901  6.5218793594640090  2.3072089268419038
  6.1074688344933783  6.4137867820397227  6.5677432718993556
  1.7350193676841748  2.1085820254119221  0.2794395730898859
  2.1369468888222913  2.0203517512755016  4.5944206501420473
  2.0556911647130018  6.0325293526993216  0.3386207374093178
  1.9507369278695406  6.0933874714475946  4.5278056048145450
  6.1259582641905874  2.0394122532613719  0.2533381177284649
  5.9081736902850874  2.2991764399810295  4.4518212731582008
  6.0735006725309058  6.5642816854555148  0.3738188806406052
  6.3733720942143242  6.0479333055047935  4.4701802435783575
  2.0103192796592295 -0.0605483310619014  2.5273275084516995
  1.5072465059257312 -0.0017861693274111  6.5217314092411867
  1.4632538523982050  4.1080078715341868  2.3914216059712312
  1.7002302038255506  4.1714342159392626  6.5100247705535779
  6.0528415124019750  0.0957990019015296  2.7237226727568644
  6.2618133564424543  0.1381887116731610  6.6534232104565474
  6.1670254826503808  4.1780014304181829  2.3657666552116403
  6.0067907031203500  4.3187104360060573  6.8243463285464285
 -0.1137048928501475  2.0786647389075212  2.7824037217126496
 -0.3277459074426792  2.2566471583361603  6.5323423719517937
 -0.3282860158895696  6.5586675131368022  2.2230182930867550
 -0.3114062007524334  6.3505117150546218  6.7594028463626987
  4.0561952770679497  2.1674743094060016  2.2795433540111638
  3.8566997950905821  2.1612915730046658  6.8718454855123925
  3.9565936542516962  6.0982823855218689  2.6227478589361475
  4.0246312279911525  6.5220700296156693  6.7982225726213130
 14.4819467891158933 -3.8750476357677242 11.7134971725253312
