Ba Zr O  H 
 1.0000000000000000
     8.3840000000000003    0.0000000000000000    0.0000000000000000
     0.0000000000000000    8.3840000000000003    0.0000000000000000
     0.0000000000000000    0.0000000000000000    8.3840000000000003
 Ba  Zr  O   H  
   8   8  24   1
Cartesian
 -0.1911379144387451  0.1114467849316984  0.3120531893268265
 -0.3180537286251551  0.1686492398462629  4.5063761795338317
 -0.1851344827550249  4.3133417387583144  0.2808521799353401
 -0.1195161648864219  4.3796995193869179  4.6727065939845112
  3.9796232779217742  0.1943933151534953  0.2598869535851462
  4.0667751193479882  0.0389754719777857  4.5503869878925505
  3.7819752739443913  3.9230041270208424  0.4220206025105172
  3.7588584818475295  4.2461150080552930  4.4253288666055752
  1.7277823889335733  2.0297311320968179  2.4821649674919306
  1.7868165067182671  2.1657619120433238  6.6368551201812886
  1.9499546271949322  6.4016297344383997  2.3879805136256071
  1.9849661826768703  6.4635720671388706  6.6207586168551025
  6.0907102597278753  2.0913113895265605  2.5014518060008974
  6.1000976574677450  2.1235036217362455  6.6841004463914215
  6.0893581881633789  6.3623505403371787  2.6298974638393675
  6.0165118256511620  6.2520135482406838  6.6387391317107074
  1.9008416727002788  1.7680911864535946  0.4104469805618203
  1.9516795772243467  2.4457468567017218  4.6193149194734024
  1.8548625098563563  6.6775241210126008  0.3503914198519234
  1.9271181695687594  6.2468903982735453  4.4929172230716441
  5.9468319731351453  2.2140263987032660  0.4329076065988140
  5.9657791371467397  2.1487212337125534  4.5016174186487481
  6.1475442889984233  6.0690200967119488  0.5582540567887286
  6.4049738581709983  6.3728329835985704  4.6481498324195227
  1.7488848379063300  0.0466264603246997  2.8239309030219730
  1.9818461808813455  0.1670428993374735  6.4355142098247295
  1.9427463611814229  4.1755763733625493  2.1742794134686076
  1.7950728563398681  4.4237289432871547  6.8220660481139808
  5.8624394927965344  0.0238618953587687  2.2560664813876348
  5.8040856789215622  0.1064686626686317  6.6740812286935496
  5.8008339731904890  4.1707467697887965  2.7287146829227531
  6.3003906856018741  4.2090614687630383  6.5895673000963724
 -0.2679097424975069  2.0492391630514826  2.6708402589341071
 -0.2212866471965632  2.1584469208756749  6.9806078275943237
 -0.3111223421858361  6.2065781162800988  2.4494796631674891
 -0.2805985027641036  6.6755445977008527  6.5693021626673120
  3.8927325945083826  1.9118371884860748  2.6476421124618952
  3.9398033849110154  2.3949688932906694  6.8329046886644020
  4.0063917422568105  6.3743466220349934  2.3683557801135371
  3.9246698636070514  6.1270938193344788  7.0998221094596445
  5.4204186866340427 -1.6771579113075425  8.9171210380491317
