Ba Zr O  H 
 1.0000000000000000
     8.3840000000000003    0.0000000000000000    0.0000000000000000
     0.0000000000000000    8.3840000000000003    0.0000000000000000
     0.0000000000000000    0.0000000000000000    8.3840000000000003
 Ba  Zr  O   H  
   8   8  24   1
Cartesian
  0.0596604313411300 -0.5931884385743917 -0.5372353216486127
  0.3778346132260686 -0.4578339027370985  3.4741068422018588
 -0.0584617698653154  3.4980672940740272 -0.7130028013930736
 -0.3344219479348340  3.7010214277663134  3.5426486514644857
  4.1410863748874540 -0.0451300718609230 -0.4472665739388947
  4.3476963021683401 -0.5058825634645330  3.5578380323099466
  4.3005016238830063  3.8661559853522509 -0.6199943103817768
  4.3587504284293681  3.7468488962683137  3.5590383465193156
  2.2933847096033007  1.5907671483714929  1.4732479402518492
  2.1916468251060222  1.4373350576038144  5.5796871246089843
  2.0116499418118106  5.7009936293174617  1.4029301112879475
  1.8294383548418558  5.6584119595682703  5.6447719760788617
  6.4006024452919217  1.6086496573816504  1.4737193218438027
  6.3448004248639087  1.5669533990280542  5.6266978597507835
  6.3194296530675471  5.9792671183846151  1.5311635168264239
  6.3082694273427622  5.8313869282808595  5.9136681385837058
  2.0692148719507131  1.4349886578058628 -0.5308669835070178
  2.1483955923510907  1.4495548269929863  3.5877602333542660
  1.9815045451437310  5.8810278130012312 -0.6588551431877800
  1.5137553133972910  5.6379169052064242  3.4878021063988740
  6.2735089368863717  1.6978343891336027 -0.7321762335470343
  6.0348602586537305  1.5587330635841581  3.4166981833346881
  6.3943557154212991  6.1315263083461922 -0.5538927018988586
  6.5970599272846782  5.7309637454009570  3.7708975948494143
  2.2671216323084282 -0.5708974548828178  1.5817497078929383
  1.9205043487827229 -0.5754219079584482  5.7617953160657409
  2.5868222323540837  3.8249909759427010  1.3959551575394398
  2.0739348633565511  3.6562100035134653  5.5345115467949348
  6.6325426538969259 -0.4704854358333547  1.8344275152579550
  6.3159600361969845 -0.4386033793801203  5.8920815289227679
  6.1313229706654466  3.9422857351137002  1.5268413391343920
  6.0480967129876904  3.7534908762787835  5.7898906901791314
  0.0673570083150276  1.5282860842901098  1.5496828805949907
  0.0840194241104568  1.7048512439048213  5.4808651336130740
 -0.1020501633167249  5.5542604563851432  1.1196144327855340
 -0.0497845107455742  5.7392919446379569  6.0288586484815339
  4.3360602578009164  1.5743098364811330  1.4413698777701869
  4.1880628613695574  1.7408541862553162  5.8061094567868494
  4.2237091361520820  5.9533455368829449  2.0294666117880595
  4.0067065958768060  6.0914648921938364  5.8105067488439488
  3.6649246055365317 -1.7542830870694557 14.9290259314500275
