Ba Zr O  H 
 1.0000000000000000
     8.3840000000000003    0.0000000000000000    0.0000000000000000
     0.0000000000000000    8.3840000000000003    0.0000000000000000
     0.0000000000000000    0.0000000000000000    8.3840000000000003
 Ba  Zr  O   H  
   8   8  24   1
Cartesian
 -0.3009387128094691 -0.0004185397202856  0.2777448382338670
 -0.2657540876571941  0.0878090306609507  4.4738652583115357
 -0.1915928921751736  4.5085468049896953  0.3848190099543359
 -0.0559777280603257  4.1545354877108922  4.5746792278370068
  3.8176244586599917 -0.1133062882768533  0.6514907175312277
  3.9863957016011984  0.0339168432358284  4.4684681294899757
  3.9178848530921218  4.2031438331112776  0.0979381184834992
  4.2560487133476039  4.4017861249571260  4.3644362735440065
  1.6935039205444078  2.1266688400294864  2.4380034994720825
  1.6952495522927897  2.1864060618406702  6.6927473073494834
  1.8355378566054239  6.4494660182836832  2.6482310410933425
  1.9205961798121047  6.4009386969213038  6.6829175025112741
  6.0843224794615249  2.1335445428477220  2.4543403232357655
  5.9947006843240418  2.0260144804604154  6.7570486548882016
  6.1410911047514620  6.3781786808543828  2.5332223032627228
  5.9565951840001787  6.3407832288636250  6.6320731671707884
  2.0553133558621739  2.3274401579535522  0.3820525351708894
  1.6294957485813608  2.2176703662943313  4.6548562602600736
  1.8597316482483237  6.2432026892721879  0.6169272589391499
  2.0381957851972188  6.6742981398154724  4.6292893407677278
  6.0251641765462898  2.0251000668658534  0.3315441122197789
  5.9173184203237232  1.9662333378151140  4.6767430944654436
  6.3653406028863175  6.5779227875193502  0.3774797369519921
  5.7068374230068155  6.4393918130115102  4.5527589364940590
  1.5351369784651521  0.1447772324222528  2.4368333222444578
  2.2635231697046696  0.1521587009022047  7.0445807480430211
  1.6729188533693029  4.1888969919661445  2.6484291308266101
  1.5864380946434569  4.3231722857466268  6.7532943824376401
  6.0769580375394989  0.0822200284860120  2.5698786140008951
  6.3264298570465520 -0.1214398130800073  6.3890592527747030
  6.0651628813372094  4.2182966319320538  2.5753932218331266
  5.8704504569486344  4.2443316340469499  6.8746140706451904
 -0.3765638291035866  2.3610008142186922  1.8522752895410699
 -0.2841527570149843  1.9023522772165160  6.8160079140910081
 -0.2050161364526116  6.4153258538258733  2.7495646581705584
 -0.2324385317869677  6.0274535276250134  6.4716834954475173
  3.7761543534420849  2.0795822437493965  2.5373960008363539
  3.6899450721963127  2.2573986024355168  6.4928533135321782
  3.9999269374592599  6.4763373866639666  2.5215870476607791
  3.9374899504294452  6.2039920734073819  7.0252440263746436
  3.7566202482554498 -6.9830360955650521  7.0310619235783909
