Ba Zr O  H 
 1.0000000000000000
     8.3840000000000003    0.0000000000000000    0.0000000000000000
     0.0000000000000000    8.3840000000000003    0.0000000000000000
     0.0000000000000000    0.0000000000000000    8.3840000000000003
 Ba  Zr  O   H  
   8   8  24   1
Cartesian
 -0.4474100813698400 -0.0622704121621479  0.6124685091888216
 -0.1931993530368084 -0.0422410508154809  4.5313612692267089
  0.0998675381908011  4.2638950006327132  0.2284125483068584
 -0.4479123269013713  4.4196145648379970  4.6282593225074979
  3.9327058300004767  0.0548172107588001  0.3535644259300106
  3.7385605542411371  0.0923941836316065  4.3036337864727434
  4.1531003943215437  4.4169146027443063  0.3836293003360529
  4.0335738855532979  4.2401430532070892  4.7410966854879968
  1.8166570460009697  2.3679913760467439  2.4584993823093466
  1.7590427135766185  2.1924726389053530  6.6164002694821864
  2.0110757524033933  6.2276331055725267  2.6174572701182264
  1.7684965985097960  6.4264018078890262  6.6598835586393799
  5.9870299784824521  2.0787014060295150  2.5879119505608692
  6.1910785622013291  1.9390484793171880  6.6609291229235428
  6.0888240187486344  6.4198824345454701  2.3670512687066201
  5.9681272706773871  6.2553822465346141  6.6416594678357921
  2.1548313292311589  2.3721378805866697  0.3271582122685732
  1.8510736477629792  1.8465541780420855  4.4926196805729015
  1.6562618678014456  6.1600202408783815  0.1934209783114201
  1.7383223512411534  6.4012746723439742  4.4733745758521142
  5.8229934870972793  2.0727499579467099  0.3009000435718028
  6.2308452113420527  2.3292661989958638  4.4793361005636543
  6.0753740963750218  6.6153623614644754  0.3048601496108289
  5.4764892999628021  6.3041602960878462  4.4698478122233229
  1.8484907388336054  0.0921138358680308  2.2054779419955310
  2.0460720474222431  0.2671027192840499  6.9135149229222677
  2.1909912399070195  4.2740076705323506  2.2876128582527469
  1.6916659928500337  4.3929780452424803  6.4383984097878582
  6.5045785655181101  0.0264889741224095  2.6803086580217661
  5.7594495890721040  0.0606052208401977  6.3654413149371276
  6.0847413139196309  4.2701218448787213  2.1965411162204140
  6.2384904646993142  4.0936630987516835  6.5429718378633508
 -0.1305286027667795  2.3745089969118198  2.4389657261698194
 -0.2343479406109486  1.6747266313033888  6.6154878223235745
 -0.2111988893397082  6.1126401773353134  2.5348827305261517
 -0.3904406848715361  6.4656996272296281  6.5315069147730354
  3.9779450629257722  2.0652902000042443  2.7400507195974684
  4.0423947153964788  2.3236150919502956  6.7481568833400383
  3.9812493388958448  6.4476840362892123  2.0135246909077305
  3.9589961090014079  6.1634279022274905  6.6717779243079187
  3.3715792723347167 -6.2182818147618297  7.7244139732724451
