Ba Zr O  H 
 1.0000000000000000
     8.3840000000000003    0.0000000000000000    0.0000000000000000
     0.0000000000000000    8.3840000000000003    0.0000000000000000
     0.0000000000000000    0.0000000000000000    8.3840000000000003
 Ba  Zr  O   H  
   8   8  24   1
Cartesian
 -0.1438571526314712 -0.5250355322886536 -0.6857484336799505
  0.0986428125420384 -0.4072976153224211  3.5687713258504785
 -0.2181848168280960  3.7312611647777603 -0.5670833882013029
  0.0811319708090779  3.8696485444269020  3.5148435148572155
  4.0092712648771078 -0.6636385827465664 -0.8612283470824892
  4.1866775695067826 -0.6830097819841711  3.5742916872618680
  4.5198092244963970  3.7227313345230675 -0.6874516997286489
  4.1708124471831685  3.7339592445726466  3.8701151704680514
  2.0822856713764786  1.4935680800042650  1.6532542494571736
  2.1938107286823358  1.6190215008311992  5.7391895721578541
  2.3581054013257283  5.8645400007885318  1.4255630967515780
  2.1048795975958989  5.8516442667690498  5.6834274219442777
  6.2166695264139049  1.6874850404646946  1.6218492116967511
  6.3106359208622518  1.6725886874133877  5.6404015541599746
  6.3142526415440354  5.8399493907502054  1.5187257433422743
  6.3662302736234624  5.8156174855050953  5.6676818707347438
  2.0660173209607837  1.8154119865767653 -0.5183806227332548
  2.4426662803728880  1.7039114398443322  3.8162073937035021
  2.3248671459203618  5.8585256579388414 -0.6626970724812917
  2.2650826721657404  5.8731584421145282  3.5618275866151627
  6.5373009754974190  1.6858306972644914 -0.5113456252178162
  6.2087119381772391  1.8389135705180144  3.6097225398731672
  6.1477796985818252  5.9908249192929031 -0.6387655907219401
  6.4829036076134177  5.9313592316475789  3.5196606569874751
  2.4965049401738635 -0.4292339368651912  1.4673836189327563
  2.2032024806402544 -0.5211805204806657  5.7097536993703111
  1.9544925107693532  3.6944949171613262  1.4372972018348693
  2.2568021944979275  3.8453475290387060  5.7267900741760140
  6.3406738334755186 -0.4747936763704840  1.4093665953045809
  6.0948228566044254 -0.4736570146097681  5.8358868291324466
  6.6157991724926530  3.7749222450210160  1.4599485761876412
  6.6534026386911584  3.7284335634400203  5.4509784385023048
 -0.0171738250030985  1.4053564641628267  1.5396895091507634
  0.2050268592943454  1.4868391975263557  5.6068588044564427
  0.0735444277089981  6.0288858201954048  1.7140003001161292
  0.0834809330696975  6.0172844912015799  5.5995571301269313
  4.1906306921228582  2.0071953138267769  1.4946538401908780
  4.2770123807508531  1.5364472103523341  5.9221063933603268
  4.4216917130703166  5.3476961806212033  1.5011924984544125
  4.3754393724855873  5.7647981580864469  5.8726751076235475
  2.8474087311359919  3.8301395214713927 10.2048914766050842
