Ba Zr O  H 
 1.0000000000000000
     8.3840000000000003    0.0000000000000000    0.0000000000000000
     0.0000000000000000    8.3840000000000003    0.0000000000000000
     0.0000000000000000    0.0000000000000000    8.3840000000000003
 Ba  Zr  O   H  
   8   8  24   1
Cartesian
 -0.4148955512949420  0.1775269879914581  0.3311868469715202
 -0.0993137507744559  0.0207703009584816  4.8148324600385495
 -0.2843414024298432  4.0348320920381733  0.3494843908939674
 -0.1737005685757004  4.3001345385296057  4.8127350843299821
  3.9558092512831187  0.2541746938047789  0.3882856937252840
  3.8003783987133275  0.0503171644258850  4.5608680579382197
  3.9999686525998182  4.2598609722541925  0.2969222932523009
  4.0823803783114654  4.2357732459890869  4.5048912486596935
  1.9432710942875620  2.3814727482436102  2.3540995600643351
  1.8550883123194661  2.1495550317669569  6.6048269309432035
  1.8435964132504838  6.4568667589878634  2.3729258001247224
  1.7841650108273999  6.2124464248749671  6.7254487567786905
  6.2030974662145111  2.1423849860305193  2.3478779132677046
  5.9601774160429075  2.0194971837448903  6.4278766874785482
  6.0867830641101541  6.3103501619174596  2.4650384135704311
  5.8544085288768350  6.2699896674928501  6.7605673995871047
  2.0956368648963757  2.3295024516128064  0.3611151631193503
  1.8080873032590681  2.0414282667785919  4.5212222974585403
  2.3140340155213899  6.2753981769785705  0.4403559741245927
  1.7448012151895871  6.6937073731276895  4.4949816768719089
  6.0410063745893838  1.9161923206177212  0.1869451645666098
  6.0580201870764112  2.1398957713540359  4.4670131440451151
  5.7774487775510126  6.2485843552803058  0.4205830321529318
  6.2504753793683152  6.4996746833109338  4.5711309063754078
  1.9755342889573253  0.2677128876572191  2.1526608103866409
  1.5917312111968318 -0.0564859330975524  7.2334557987118595
  1.7340999346000432  4.3318811271173372  2.3324553094805767
  1.9697963673276389  4.1786298618792790  6.4670761103393728
  6.0440643650067587 -0.0231058232120334  2.4413924338773483
  5.9839361216976066 -0.0984513274459428  6.4948816643564768
  6.0646605845884851  4.2025378077930720  2.1282195294944728
  6.1598348776490992  4.1028658870459553  6.6908360519672927
 -0.0727824697066186  2.0473185882681544  2.2930247396419574
 -0.3101605315675577  2.3142831455506587  6.7861094835310203
 -0.2979487132926051  6.3840283153083046  2.0253140255316975
 -0.2053189743627887  6.0136737994273899  6.7617587572041495
  4.1061217072781542  2.2357100775445184  2.3680402450980047
  3.9261556932255610  2.2282990133319918  6.5878712333148055
  3.8787355581012393  6.3535550882993892  2.8036126534613164
  3.9184085932057151  6.2704073899113419  6.4607509966231484
  9.4996615012382399  0.2875024715062877 10.9961477850645473
