Ba Zr O  H 
 1.0000000000000000
     8.3840000000000003    0.0000000000000000    0.0000000000000000
     0.0000000000000000    8.3840000000000003    0.0000000000000000
     0.0000000000000000    0.0000000000000000    8.3840000000000003
 Ba  Zr  O   H  
   8   8  24   1
Cartesian
 -0.3551860702093815  0.1725882359843773  0.4282198173588783
 -0.3700823870157185 -0.0506240223410141  4.5830930363264430
 -0.2375705694513943  4.4118469987677775  0.1882908188471021
 -0.1384188457517566  4.1414454979098512  4.7324933647879917
  3.7960153431573285  0.2706812812589324  0.4105974754366906
  3.8747349955441188 -0.1287074984115978  4.8124737228274412
  4.0780119115543689  4.0949329573006334  0.2652983663295143
  4.1792211463756370  4.1737193155489196  4.3866310812672076
  1.8023915433795661  2.2380347848847570  2.3520464850569573
  1.7747431040836255  2.0381141259354290  6.4853219284229118
  1.9158370647826828  6.3403953368223984  2.4812210581082805
  1.8562419036318785  6.3588082624257485  6.6415500149072111
  6.0627359825372942  2.1732923169907887  2.4107835141692795
  5.9574188561840495  2.2796327829730973  6.6061594363162719
  5.9564976066868223  6.5652443461910837  2.5413649612430782
  6.0350867038758222  6.3617123784488356  6.5921174359407413
  1.8772742162409684  2.0546006280382390  0.2203436731463320
  1.7200869855300125  1.8593131753312799  4.5522408722115930
  1.9886128369745779  6.3874710816683411  0.4113622872659090
  1.7656424439614227  6.2653934337574340  4.5446263013305845
  5.8884186584880371  2.0636517084969355  0.4295684299404638
  6.3096753791039175  2.1637666255843588  4.5746290742024778
  6.3971490233494963  6.4465308416281193  0.5244253907457291
  6.2820608083914715  6.3548820344918369  4.4762013014797795
  1.8592093690883380  0.1466089714159408  2.4477629072523084
  1.6214092723519427 -0.0809819956317583  6.6586288656261434
  2.2394229753598571  4.2207256966670750  2.7353281522900899
  1.9898510937301492  4.2795471171067225  6.5616947760613789
  6.5124682337646318  0.0904918186526094  2.4200765562274338
  6.3395082840716812  0.2359178914790235  6.7909387224300710
  5.8619060145883939  4.2490857841287903  2.4747800424406687
  5.9197342855815167  4.3337088452985739  6.8685435465043261
 -0.1935553158037852  2.6211291753465105  2.2773407973333524
 -0.1659866602495415  2.3329221955729285  6.7566684139075743
 -0.1211529045493602  5.7340348398080927  2.5268024177657598
 -0.3332342571144813  6.4261082625718178  6.7594620473074665
  3.9756924661420241  1.7495270392966786  2.8069000779337792
  4.0222006924198421  2.0132914871343974  6.3550174803274988
  3.9759362465921075  6.7431655656220553  2.7386533295625393
  3.8823280646264617  6.4641709634590443  6.5865362933815401
  7.4389955603126934 -3.5005708855549336 10.8526996472883575
