Ba Zr O  H 
 1.0000000000000000
     8.3840000000000003    0.0000000000000000    0.0000000000000000
     0.0000000000000000    8.3840000000000003    0.0000000000000000
     0.0000000000000000    0.0000000000000000    8.3840000000000003
 Ba  Zr  O   H  
   8   8  24   1
Cartesian
 -0.0680883095104417 -0.1228553960200953  0.4812706403029386
 -0.1177000516141628  0.0755361054499417  4.4054329492841449
 -0.6128304991409970  4.3570966799102537  0.5216722464887604
 -0.3023149465479581  4.5150721069690318  4.7374559129771443
  4.1604390518496785 -0.1015821708820521  0.2589384782782371
  4.0020322284436887  0.0493766636106716  4.3784159861422465
  4.0540613449336282  4.3087664173214151  0.3721615617743778
  4.0379228697497700  4.1726173018812789  4.4261468974021669
  1.9455609241123932  2.3210063667229996  2.6193996127233783
  1.9024759002470388  2.1866677453424512  6.5974351614206039
  1.8325001160336394  6.3659037590083516  2.2576153076294450
  1.8024267473545785  6.3263809431046676  6.5270538334185693
  6.0911245219595420  2.1587865360651195  2.6125452374909397
  6.0991753455978488  2.1279501284576599  6.6862598267027264
  5.8719807626897849  6.4673160441513362  2.4781273938301474
  5.9161850830296681  6.2641339152719890  6.4947502000727066
  2.2691424341120743  2.2266400176492835  0.5679160099018815
  1.8804996402014151  2.1621419271198654  4.5838520626023396
  1.9512118825485396  6.6266325533597028  0.3278077315785922
  1.7286318019520144  6.0384152925281738  4.6695657943823168
  5.7928745344667218  2.3959840183330363  0.6109410504345449
  6.3095693709572656  1.8353977997403412  4.7086348135294953
  6.0614986569879248  6.3515107334333640  0.4405508745293991
  6.1882387712324523  6.2524859779082043  4.6044323073544620
  1.8812725774246499 -0.0775888688734460  2.5568969446840111
  1.9393086867958504  0.0702140775061052  6.2633390247744147
  1.4209592196522123  4.3030261836574502  2.6234644811899455
  1.3801481648344984  4.2029684191202898  7.0008696653017015
  5.8827936006825423  0.1007166390515658  2.5205125751604593
  5.7928749769204551  0.0277087063421163  6.5982297271940782
  6.2008618093222063  4.1724392677828801  2.8476905617426933
  5.8265229036394368  4.2703844785780554  6.6029055769740461
 -0.1334839566473723  1.9570980950061450  2.2336390391914440
 -0.2964346790952245  1.9052064978590126  7.1399303555595344
 -0.4986338891015590  6.3770250376098012  2.3990608401125204
 -0.3227909214867695  6.6979009661938518  6.6749550485576963
  3.8844510565093922  2.1982906118442886  2.6645706953723218
  3.9748513442490556  2.2285460659640997  6.5200614541654680
  3.7702909235787345  5.9472896083708529  2.6597805799979377
  3.8598565881451168  6.2841847388746448  6.7170068569381050
  1.8084513341209372 -5.2972345591961423  8.4528875108803980
