Ba Zr O  H 
 1.0000000000000000
     8.3840000000000003    0.0000000000000000    0.0000000000000000
     0.0000000000000000    8.3840000000000003    0.0000000000000000
     0.0000000000000000    0.0000000000000000    8.3840000000000003
 Ba  Zr  O   H  
   8   8  24   1
Cartesian
  0.2609928167915871 -0.7148831316540227 -0.6589171925974423
 -0.0496889033439521 -0.2689615854919685  3.5997125779892527
  0.1389196262952995  3.7451858818507118 -0.7976828767473404
 -0.0988241723840845  3.6715126109394141  3.6332632139220209
  4.1458691233594900 -0.4766255784166461 -0.7580061980873423
  4.3014669121945150 -0.5677410405694756  3.7621910541734858
  4.1852397250927167  3.7828922084049226 -0.4840630104713273
  4.2759069920658401  3.6607287814186993  3.6562520818118105
  2.1633497746599679  1.7046748271972636  1.3709546714198249
  2.0269076216939435  1.5549619837633863  5.6649673245681571
  2.2447213222845290  6.0100644540669421  1.3958902697714184
  2.0325987398603536  5.7289426767041087  5.5849034567126763
  6.2729338768278051  1.7122143175161513  1.4871942270413538
  6.3365213277058920  1.5949022819352774  5.7883541903826892
  6.3858368905761926  5.8759462593587992  1.5171049373146992
  6.2097413646665283  5.7624067949641153  5.7595205064304880
  2.1560196838048804  1.5505552993135037 -0.5969924356397835
  1.9293385784101218  1.7593071010526513  3.6944941997874183
  2.3352750251664252  5.9453792488504504 -0.6986176803370581
  1.9218119723629250  5.6341439948222227  3.4431949865813030
  6.3015018959945666  1.7300864556552060 -0.4517954807896978
  6.5830153089463153  1.6497743387611934  3.5591741378538377
  6.3793453941051546  6.0482923347413724 -0.5148044259062713
  6.2348113971303460  5.6470496119084626  3.6871713483671282
  2.2913982900345595 -0.3741420972273108  1.7121019915093088
  2.0974289150353416 -0.5569917977378944  5.8831113645818078
  1.8872019285591892  3.8207298334257955  1.2662036283136728
  2.0813172343889565  3.6661914878501833  5.4979644395057541
  6.0588079431750641 -0.4377880386152648  1.6857788610895437
  6.4894461444007252 -0.4737353510959738  5.5516025117761600
  6.5052507216082773  3.6593374800988143  1.2011820845290204
  6.4154602032714951  3.7066846648877165  5.6958525104037649
  0.1450329154340289  1.4237905616754136  1.5207283034539585
 -0.0703592643014836  1.6079217877145957  5.8002781829487606
  0.1795763316161741  5.5715129216617276  1.3380958280695121
 -0.1206370237120835  5.6380291550530224  5.8358322362616368
  4.1059082749136593  1.9308843130024769  1.6242176450221197
  4.2068699032190136  1.8846023097193161  5.8871526776298229
  4.2674871913107308  5.7198999591594673  1.4865173665911215
  4.0710273542453574  5.5321526372444323  5.8289541731559904
  0.9773231354761104  4.3189287233388889  9.9415784210160556
