Ba Zr O  H 
 1.0000000000000000
     8.3840000000000003    0.0000000000000000    0.0000000000000000
     0.0000000000000000    8.3840000000000003    0.0000000000000000
     0.0000000000000000    0.0000000000000000    8.3840000000000003
 Ba  Zr  O   H  
   8   8  24   1
Cartesian
 -0.0617405170030232 -0.4105617071319547 -0.5906147546787361
  0.0295373471786268 -0.4671895262485561  3.4636383166737184
  0.2054850188974224  3.4643912529218541 -0.4665360998068742
  0.0373422980173405  3.7716698585182744  3.6035682515914931
  4.3405552806899150 -0.3504746740087891 -0.6592778093517790
  4.2958177027839426 -0.5716189611106265  3.6198811122547618
  4.0107611493103184  3.7134275306659492 -0.9140612430280167
  4.2833427465693310  3.6763874507805774  3.5659788939182229
  2.1764351470716612  1.6749850418804220  1.5466540013100252
  2.2465172154215716  1.6937786838435815  5.6411179544246579
  2.0774649609300018  5.8946886305896475  1.4815354260918596
  1.8239573597642664  5.9287384391247908  5.7287841100451189
  6.2665841593156379  1.7825765698012292  1.4329214148373335
  6.4271722628325438  1.5978690708744518  5.6857374176274567
  6.1982138409049456  5.7491545705860601  1.5701697370515777
  6.3585795871383448  5.6581391409940913  5.8249127369107505
  2.3162164900322897  1.8045254662769086 -0.5877914532038356
  2.0382189455792377  1.9272697150389881  3.6156718993981536
  1.9938363798846208  5.9029117399118967 -0.5937588828359948
  2.3454638648871962  5.8691567728022704  3.7093570666759725
  6.3146477424504770  2.0975875899194416 -0.7099571575083962
  6.4325223319860738  1.6579829486426934  3.5502974424954838
  6.5155210570257989  5.5759725543879188 -0.4772080539092072
  6.1314433259894789  5.8675247090902287  3.7896765605554648
  1.9965673765507619 -0.3402523184861043  1.4448699208797344
  2.1608125697282201 -0.3592006152896760  5.6153093084972454
  2.2317122649619980  3.7221731391101511  1.5102084082461023
  2.3372343221056315  3.7619218667316501  5.5328717057885566
  6.1726007011303778 -0.4584454046014339  1.6624868621736149
  6.4789066078690869 -0.7056620426627497  5.8908533344615757
  6.4745128248290227  3.7325563315858572  1.6917348537383712
  6.0691997951456989  3.6901575763998968  5.7492298415995737
 -0.0562691290465634  1.6558374653084988  1.2000183105791464
  0.1521232541734569  1.3898059696268477  5.8816170186011734
 -0.0281219063974997  5.9489688286602966  1.7129754668479167
  0.0458082455831572  5.1040969641988090  5.9268390867450886
  4.1359730518041351  1.5914682828580924  1.4972823583227117
  4.3001821340241859  1.2126718425387091  5.7543681624788290
  4.1994598210543215  5.8924974279111035  1.4988759906742428
  4.1667942275802519  5.9903110423545094  5.5869878019637591
  3.8535262616548107 -2.8512537114005920 13.1430869802692456
