Ba Zr O  H 
 1.0000000000000000
     8.3840000000000003    0.0000000000000000    0.0000000000000000
     0.0000000000000000    8.3840000000000003    0.0000000000000000
     0.0000000000000000    0.0000000000000000    8.3840000000000003
 Ba  Zr  O   H  
   8   8  24   1
Cartesian
 -0.2089138456852243  0.1941595241816867  0.4163061271513878
 -0.2488957900290353  0.2551100684891525  4.6729602048481098
 -0.0889273063879035  4.1150290650008143  0.2971218123907204
 -0.4515651834684122  4.2812585783373995  4.6069359398307164
  3.9345554263691604 -0.1300684096395741  0.4249354774693479
  3.8566645713504011  0.3222608782278843  4.4482661728802899
  3.8066066947021149  3.9585228200738634  0.3934634904753708
  3.9847385503179726  4.5281843603471090  4.5611911858177105
  1.8949903144251981  2.0645581330249514  2.6206506779885088
  1.8293236429118360  1.8505964362906930  6.6972731220253650
  2.0262961897362182  6.3044588856070662  2.4975327826227742
  1.8231220397945369  6.2870142470423565  6.6852027908246008
  5.9298067167079012  2.1633152578271293  2.3239030249274788
  6.1135474671629586  2.1611003085699512  6.5592376790402511
  6.2926170194441644  6.4034232063400873  2.5854058352339009
  5.9758131484697090  6.4670535556118596  6.5063610449135041
  1.6675505221627525  2.2485339193500402  0.3049679186223110
  1.8812208454378820  1.9084991992222475  4.5695265350804997
  1.9625039749822799  5.8635626244425358  0.2696734924384135
  2.2785817357002123  6.6429388396031728  4.4494821080303035
  5.8020480073051770  2.4050358318271301  0.3359948958607349
  6.2086670789526606  2.1239949195531991  4.4953815936552646
  6.3853475419103551  6.1255022893630295  0.4458814330975820
  6.1312343904560738  6.6627379193726330  4.5660475431550083
  1.8458830187418431 -0.0146384420439710  2.2272815010556446
  1.4976266309264294 -0.0777660374308672  6.4996380955568629
  2.0459013230179326  4.2173078899846264  2.3570309238650284
  2.1317436118799891  4.0722062878868490  6.5126781771485538
  6.1399608399017120  0.1521618058492515  2.3204427331836674
  6.3364595526457776  0.0461664189032170  6.9849579601362013
  5.5935289310779339  4.4515194877521447  2.5196369887419925
  5.9465939646853894  4.3249395405478577  6.6749884249267177
 -0.2074878639016639  2.3972963200177548  2.4289846113772167
 -0.2689849207516719  2.3375747499607171  6.6481881098691753
 -0.1157951438866771  6.3864816171885694  2.7711154692504416
 -0.2264537662012233  6.3167535386996763  6.5959839614161995
  3.8760705589906492  1.8434258214213590  2.3245415553631483
  4.1175928161656259  1.7552907601390078  6.4757043773216303
  4.0169585200099549  6.4396319033614153  2.0611809399001979
  3.9575289940403722  6.4113011220643052  6.5228082057352248
  5.3683278231357932 -2.1824471147773679  8.9849868782966897
