Ba Zr O  H 
 1.0000000000000000
     8.3840000000000003    0.0000000000000000    0.0000000000000000
     0.0000000000000000    8.3840000000000003    0.0000000000000000
     0.0000000000000000    0.0000000000000000    8.3840000000000003
 Ba  Zr  O   H  
   8   8  24   1
Cartesian
 -0.1784061655481518 -0.1918779851251805  0.0861474701373667
 -0.2310761988551741 -0.0009599409936696  4.6503680809754027
 -0.3190940001219858  4.4481385703039003  0.5052026838264118
 -0.1024004056635081  4.2207318568927183  4.5856593159104957
  3.9331471243853038  0.1532862779010163  0.0727839470707936
  3.9631577638687863  0.0083825437568499  4.6428307013957939
  3.7810309322710873  4.1963799851078925  0.5013424132810640
  3.9117114311768542  4.2300159706102294  4.4936286607134255
  1.9658748581215397  2.0349826577066099  2.4944492329231083
  1.7922850846071816  2.2841529545092802  6.6090200625080708
  1.8965925978766331  6.3728909762676134  2.6105911485199162
  1.8437718341664566  6.3917479310675347  6.7336978993444170
  6.2669301211876007  2.2712310697387177  2.4880333209469319
  6.0300476728740398  2.1310163375072642  6.6745846211149837
  5.9142873756803533  6.5691276363585827  2.4750749150575584
  5.9817962557669846  6.1886019943422177  6.6630786212239146
  1.8905647642072538  2.1028844410010548  0.4637304113227694
  2.0016934990163868  2.2278166569410720  4.5653254097702964
  1.9634413920620870  6.3730876384484061  0.4560193761429794
  1.4519396972306229  6.2476146832919035  4.5243138420596942
  6.1752302865193878  1.9193832566720901  0.3681105511704513
  6.2481867977043688  2.2710239331675033  4.5995804184880766
  5.9484021483441847  6.4194909358064667  0.4032178408374693
  5.9785268075680955  6.5057062788845554  4.5556994890608378
  1.7475216626523717 -0.0078319004297465  2.6458276722560745
  1.6081976068158326  0.2581339614966550  6.4511101885523239
  1.9659933229162532  4.3274244051771973  2.3761774793089745
  1.9357276514706128  4.3848915766233603  6.5355375998222902
  6.6850571773597869  0.1294984105339636  2.2414825218387335
  5.8094187244731712  0.0369261732132908  6.7306817033302169
  6.4888431691963619  4.3410420844548101  2.5058317148059679
  5.7511547888557573  4.0855475823600500  6.6405770939818831
 -0.0166236166500740  2.1167660441987848  2.4242595387656234
 -0.3484396743081523  2.3253459539122434  6.5488664710165621
 -0.3042044436353126  6.3511915595802302  2.1886480937174229
 -0.3326269255822958  6.1748465053472774  6.7369298874043793
  4.1554973949174192  1.9167556402703931  2.5117660736422049
  3.8281523391736623  2.2546088713319352  6.7978904159327156
  3.9387546706260985  6.6217819178774180  2.3228174060083915
  3.9982957442453069  6.3064493633371779  6.4287380349502001
  7.4328081353594202 -0.4635883380390982 10.8436754656250898
