Ba Zr O  H 
 1.0000000000000000
     8.3840000000000003    0.0000000000000000    0.0000000000000000
     0.0000000000000000    8.3840000000000003    0.0000000000000000
     0.0000000000000000    0.0000000000000000    8.3840000000000003
 Ba  Zr  O   H  
   8   8  24   1
Cartesian
 -0.0007207330801710 -0.4295569723348922 -0.7733411842078574
 -0.0082230807711724 -0.5170696179316741  3.4017843809950699
 -0.0778879321237273  3.6636328269987382 -0.5821121948403384
 -0.0960595067048408  3.8882721067561725  3.8113641552939579
  4.3560662437230517 -0.3294642184767222 -0.6404651937637036
  4.4604673420799523 -0.6013276098875735  3.5281410536759035
  4.4698087753776319  3.8170056497933484 -0.4401874706674743
  4.0279003725904730  3.5675916099648908  3.6622757980150724
  2.1890456361047890  1.5983137477975835  1.4797469661735558
  1.8952965168577545  1.4354551400278537  5.6111603206150980
  2.2009604106845559  5.6993502069775444  1.4559202914784732
  2.0285624072845372  5.7012794311038490  5.6754488297691275
  6.4765069990923854  1.6294662289872042  1.4029208743527035
  6.1431633252340614  1.7205564148886263  5.6722201395333425
  6.3841736889294474  5.7610932384710942  1.5458268301453684
  6.2354396050897822  5.9732445183978990  5.7767245565855649
  1.9733327500186686  1.7570799783801814 -0.5691629568029222
  2.2330113322858454  1.1549735153714109  3.6132973784118807
  2.3498655495957963  5.6489166844476140 -0.5798064374535908
  2.1274140777138824  5.6327122567473378  3.6434549749845400
  6.2231378774724417  1.8248991169880460 -0.5799863242059242
  6.1408798921962884  1.7281772683104699  3.5446980292835248
  6.0354220256009663  5.7647374931737554 -0.4934315847562075
  6.4954891603964979  5.7860860289601819  3.5617006652089223
  2.3734871813376945 -0.5171625948271527  1.3667515705681097
  2.2351420654536680 -0.5855668261608808  5.7534647809082990
  2.0215079758677788  3.6870222604573821  1.6793286320196259
  1.9026849895892499  3.4821392033927716  5.6453538660684703
  6.5389810333692306 -0.5575922340687998  1.1341461279103955
  6.1914091357474073 -0.3655152588268986  5.5864567336838382
  6.8195689999019091  3.7480835671783383  1.6102340639434050
  6.4841877936010777  3.8303752356945711  5.5104453798607960
  0.1360535699065279  1.3784556699395434  1.3477276864171872
 -0.1623229623150957  1.4943473298858050  5.7811891282787080
  0.0297376916280416  5.8510939617440876  1.1771333364870176
 -0.1164148331023945  6.2069768834470453  5.8677539463570021
  4.2532451181186417  1.8496857782301150  1.2719079123920078
  4.1194420373708471  1.9573754243907315  5.9542108049684996
  4.2255069532935599  5.8948617348365744  1.8432515406758869
  4.2042244177029753  5.7994789050113260  5.4542112113935666
  2.4137619652653104  2.6849447922025531 15.8380739852183225
