Ba Zr O  H 
 1.0000000000000000
     8.3840000000000003    0.0000000000000000    0.0000000000000000
     0.0000000000000000    8.3840000000000003    0.0000000000000000
     0.0000000000000000    0.0000000000000000    8.3840000000000003
 Ba  Zr  O   H  
   8   8  24   1
Cartesian
 -0.1024776320355271 -0.0057141182803767  0.3334043184689551
 -0.1866803629547293 -0.0547995229928080  4.9984976199209834
 -0.3114392498323204  4.0703228888804066  0.3344176281339817
 -0.3777641732585384  4.1671585488763077  4.4896586019314340
  3.8872865844424216  0.0139574490366470  0.1766105483287238
  3.6358961222230528  0.1347996316607076  4.5028857501996793
  4.2361410315868975  4.1579524778891592  0.3212025760665135
  4.0140940997874752  4.3124417424884598  4.3860734888435688
  1.8912803722699265  2.2405453869026077  2.5163617828501716
  1.8590925416052839  2.2282273472730614  6.7358948479986749
  1.9339788906916355  6.4729711324636323  2.3907291218550366
  1.8538380818205535  6.2734260639878707  6.5694437796876493
  6.0013748032150813  2.2340395081373532  2.4997857119799791
  6.0185004782152980  2.2916295033182847  6.7240146625158648
  5.9593537202370186  6.3700395904352565  2.5051666554751062
  6.0689339235671333  6.3539583482681756  6.7964296855281727
  1.8717394526010567  2.2756324648347217  0.3233869655781493
  1.7838484342952332  2.1086233290264613  4.5652531864911436
  2.0589944458433678  6.4084735903321741  0.3988767612066886
  1.8903149211034118  6.7142318842725652  4.4522773931737767
  6.2038877467689577  2.2899082964786515  0.3097462026295739
  5.7085371621069747  1.9526420193010263  4.5914129195026234
  5.7215134067817974  6.4678382525222293  0.5706487111668556
  5.9939805351117954  6.3268389957118956  4.5461398408532574
  2.0941647288540688  0.2006862305372806  2.2565362033633520
  2.1068897546188379  0.2213183446191828  6.4966350808006696
  1.8942808893789365  4.3499133828880225  2.7287096319520603
  1.6726655992923436  4.2264390878216567  6.3833702382404471
  6.4974457260877028  0.2066342302305855  2.1994112147159899
  6.1342316676101527 -0.0641053761201423  6.5681093314544743
  6.2181502457796567  4.4093186484140130  2.4098755886390952
  6.2588240477536159  4.2848180450408977  6.6761706425996756
 -0.2660241617264056  2.1770018558034536  2.3507637131741439
 -0.2488808714655034  1.8071102839044131  6.7379049707674206
 -0.1893754204998512  6.5192857157707857  2.5204836287578609
 -0.2436586735268487  6.2218787459988771  6.4306925928839673
  3.9703544215351325  2.3436043276803469  2.4574364315272819
  3.9588273512388743  2.6563181609737212  6.6469665994817371
  3.9125405246878864  6.4924066600488501  2.6698462988708185
  3.9024506287847407  6.2586957380441257  6.8336872244876483
  7.2943694174169362 -0.1993826889691950 11.0684014084872562
