Ba Zr O  H 
 1.0000000000000000
     8.3840000000000003    0.0000000000000000    0.0000000000000000
     0.0000000000000000    8.3840000000000003    0.0000000000000000
     0.0000000000000000    0.0000000000000000    8.3840000000000003
 Ba  Zr  O   H  
   8   8  24   1
Cartesian
 -0.2040329377742560 -0.1489239179317139  0.0815043711222864
 -0.2161015911625543  0.1588913950683802  4.4326490583282778
 -0.2593110229274193  4.1085451997833182  0.2217054828231321
 -0.3864316334644965  4.1970784328305966  4.4687059087830976
  3.9021985761772453 -0.1134842960628829  0.4709120235830691
  3.9082884743109507  0.1332827178862202  4.5947550609761008
  4.0573279080549929  4.3132117763981137  0.4549064666957400
  3.8557999205308264  4.1931583728670692  4.6904778830418703
  1.7631352302968839  2.2706386474447604  2.7110699086583150
  1.9416646145381926  2.2288390140932579  6.7440685939071283
  1.9085839347559903  6.5678312313785137  2.5548867509744144
  1.9235743175925488  6.3244527484590742  6.7598941431968038
  5.9984201086016435  2.3057276870728338  2.2364977793814238
  6.0800478468984158  2.0497543361041584  6.5354586841129443
  6.0681697058715498  6.4125117300426302  2.5095382880605128
  6.1311516500968439  6.3110699487502844  6.6642159143655890
  1.8559585585322165  2.1711705633107097  0.3834421577045208
  1.9761865043422600  2.3194893499932467  4.6235215614911205
  2.0478667636240693  6.3724285274022874  0.4191872674969088
  2.0242774756966231  6.6606426212023875  4.5950939315355637
  6.0789620560020152  2.0230475864065980  0.2971251052259099
  6.1233621292185454  2.3574179317280177  4.3024419366773028
  6.1683110520364188  6.3335598650703355  0.2660255489074727
  6.0153980150447897  6.2997796221328031  4.5295594872679263
  1.7353641864074385  0.2779677391507695  2.3034961908899030
  2.0132177176812989  0.0714446511801333  7.0050401323868643
  1.9684648072518343  4.4838472483211476  2.9170689270711527
  1.8085575977780930  4.2659022130584541  6.8661916949807482
  6.1395193896113316  0.0961645035446561  2.5732472901071985
  5.9696267973414097  0.0235276933315118  6.4655873137826161
  5.8115617115714082  4.4695998589813115  2.4871986129306118
  6.3883583359006257  4.0404146519668158  6.4790833128651428
 -0.2576179973622828  2.5959342583836924  2.3686799662850708
 -0.1274208264753082  1.9648243444059705  6.6308690995528705
 -0.2717144554665266  6.3181605789936484  2.3481355962231221
 -0.1493947638572899  6.2461934269224511  6.6046204649079767
  3.8053837146510299  2.0741026707945682  2.3879059800609301
  3.9119925991218554  1.9623256329974244  7.1240237985448189
  3.9675509094852153  6.6013971647471932  2.4405637178952588
  3.9924961122926588  6.2312970145115463  6.7052819946111972
  2.6094770021811375  2.2791303385703174  9.3124556579257511
