Ba Zr O  H 
 1.0000000000000000
     8.3840000000000003    0.0000000000000000    0.0000000000000000
     0.0000000000000000    8.3840000000000003    0.0000000000000000
     0.0000000000000000    0.0000000000000000    8.3840000000000003
 Ba  Zr  O   H  
   8   8  24   1
Cartesian
 -0.2575270150502039  0.0727557182286807  0.3739504532898195
 -0.2621628567089331  0.1153092750144559  4.7451431513678122
 -0.2661375494536126  4.1756871359532131  0.6947113105935147
 -0.4040342906002756  4.2239232220826839  4.6702039612218558
  4.0475990462464679  0.0880607589934383  0.5495962007449131
  3.7154548262010536  0.1202989052659349  4.6708540701097272
  4.0704952555191483  4.5140726698439018  0.1573457953292708
  4.0685895698989487  4.2920139521966911  4.4511962163530150
  2.0534933551077454  2.2952149674671629  2.5451808779350387
  1.7511290139616227  2.1614682839144956  6.4744355484549434
  1.6803116087841108  6.4405709801502278  2.2869154423587896
  1.9676617645720040  6.2006444337567785  6.4970432812627772
  5.9948986675376013  2.1658866694367558  2.3269590339377677
  5.8866168790774553  2.0281050773630716  6.6663586141842419
  6.1538539767121527  6.3242888557062438  2.4672789630123058
  6.2701379388671317  6.2186688539573005  6.5940234725462457
  1.5051606398110842  2.0132098188779759  0.2349860716004022
  1.8985763571745256  2.2042371326901340  4.5717206222906333
  1.7947857756812067  6.2055185147622547  0.2945644003000789
  2.0669511578211268  6.3419267894856404  4.5322119195503197
  6.4599085719987537  2.3284289591327867  0.3205228858683014
  5.6930648510785069  2.0671069507247517  4.4645349789702022
  6.4246700172757700  6.2370797094926145  0.3219424431124523
  6.1745715436348974  6.5266517464020462  4.5651839782566199
  1.8445887705453559  0.1639184649882704  2.2379472972781662
  1.9135986213987903  0.0413539357295450  6.5899613003488824
  1.8480881710072661  4.2470451946783729  2.2983082300344275
  2.1104958427599292  4.1439349344201259  6.4988310584705893
  6.0527183991267153 -0.0044199252859931  2.4671006737539329
  5.9297904708524038 -0.0078815574339399  6.9843584482212764
  6.1413569241461428  4.3116031063512059  2.5523338528052455
  6.0063248046273552  4.2152059881600250  6.4614646438489354
 -0.1046848876091484  1.9922598493200538  2.6721721084181920
 -0.3648542305791518  2.2059801667006638  6.5592578527096066
 -0.2655586476310998  6.3579899013828465  2.2393069536746677
 -0.1606450086072782  5.9918342691938413  6.3997801333408191
  3.9777298632798077  2.1420236925241980  2.2529955205197156
  3.7363666844428383  1.9836195975752369  6.7347516314951577
  3.9605150642499098  6.0331659558666413  2.1144119778701453
  4.1208554186703630  6.0758241669040851  6.2591552575216891
  2.5425234763097255 -6.1686596152827748  8.4375504891156776
