Ba Zr O  H 
 1.0000000000000000
     8.3840000000000003    0.0000000000000000    0.0000000000000000
     0.0000000000000000    8.3840000000000003    0.0000000000000000
     0.0000000000000000    0.0000000000000000    8.3840000000000003
 Ba  Zr  O   H  
   8   8  24   1
Cartesian
 -0.3747022199979151  0.1029204315624393  0.1974135148915239
 -0.3451674753644407  0.3639282100769664  4.6994773111778301
 -0.3627250205955045  4.2572778619360765  0.5005449386851138
 -0.1892402776373578  4.4837606407604511  4.5920243386755581
  4.0929671130362486 -0.0135766960174757  0.1551548207644889
  3.9310272776976447 -0.0013056766154606  4.3489189059867579
  4.1750216634149293  3.9732098349209419  0.4829173545475420
  4.0829914204639497  4.3148938226451223  4.7792007320884329
  1.8004330265135675  2.1304224139470196  2.3103017541964221
  1.8850905725946128  2.3273091726941115  6.5786305567049670
  1.8102056804420306  6.4371758050185983  2.5440410312256581
  1.8278008888883441  6.3971451822288206  6.5456747595480405
  6.0792065791160539  2.0279596186106730  2.4996862979613845
  6.1135818141707459  2.1150242171644282  6.5996840196517814
  5.9142597149200853  6.2967387988733119  2.5329813301051405
  6.0910127362152577  6.1368723399831993  6.6719385071676491
  1.7642930598155404  2.3428663473121416  0.3374134319718778
  1.8713602421322044  2.6280507774287667  4.4246760162639962
  1.6080896443410211  6.1900808693460680  0.3232826283113847
  2.0388254209990109  5.9370723577466560  4.5975693737663006
  6.0960624539477557  1.7421198263622679  0.4021974179938383
  6.1029633206341591  1.8733475238857085  4.6069287245294541
  6.2070684270631196  6.4721691791309617  0.3664471062783676
  5.5394519607196333  6.3137902459905186  4.6247087241650418
  1.9111899783936279  0.0278485091823160  2.4275198487609848
  2.0158607373272450  0.1231370573553347  6.2369680302461008
  1.5973816298084920  4.3081027910830008  2.3081156652160359
  1.7713244145565135  4.3218658722661294  6.8534623856085144
  5.8503647035239386  0.0395481426482237  2.5205730667301971
  5.8846002287911077 -0.0386709432218690  6.5004691807648260
  5.9932156896391264  4.2188790047744353  2.6631691712541099
  6.4390450460657389  4.2058680571674429  6.9976379893048364
 -0.1965949452224174  1.7645164513922724  2.5419179981544402
 -0.1326970529621003  2.0661771858349485  6.6618875377970701
 -0.2814521623864700  6.4425032421703863  2.4368419238137928
 -0.3125722979234525  6.5208032982219191  6.7215162915688698
  4.0947778784026632  2.0134631131487377  2.4065606888786260
  4.0907434020176376  2.3374873410105086  6.8579543085353540
  3.8680569761111676  6.2599662262890874  2.2947010691636436
  3.7879531781428235  6.3627057237925824  6.7976602953709655
  1.9815680814122374 -3.0991139299602426  8.4752666793886657
