Ba Zr O  H 
 1.0000000000000000
     8.3840000000000003    0.0000000000000000    0.0000000000000000
     0.0000000000000000    8.3840000000000003    0.0000000000000000
     0.0000000000000000    0.0000000000000000    8.3840000000000003
 Ba  Zr  O   H  
   8   8  24   1
Cartesian
 -0.4957935245909199  0.0062254174183616  0.2990554774664741
 -0.2346478708040936  0.0126975991222574  4.3825942782262617
 -0.1002833763790408  4.5420486792432868  0.4501998770158621
 -0.0773070156423413  4.2439250531892041  4.7126167811019037
  3.8297071040176407  0.0186874568445565  0.3507075591383682
  3.9166571590758967  0.1014716497059795  4.3360527097626296
  4.1945698473692028  4.0374593596182482  0.0600686964044557
  4.2954803166402415  4.2247438958274461  4.6065579744492577
  1.6654267608309721  2.0597590049836629  2.5091416628730006
  1.8578650997653352  2.2627531577975857  6.5722124987570885
  1.8717048951143873  6.2950957087780202  2.5393511902661183
  2.1330726284083328  6.2573980599666701  6.7357992605028647
  5.9660058845846295  2.2787180197701780  2.1713056126973220
  6.1260272098137261  2.1206818349197230  6.4272574345267843
  5.9849983701110903  6.2846237025128682  2.5630809942704351
  6.2021466868871018  6.3957648117523949  6.6624509417326552
  1.7057394617008619  2.1557142608006026  0.3216591475635205
  1.9106124959337605  2.1298166739700237  4.4954862039642194
  1.7040756026049459  6.2891840333927291  0.4059548599356350
  1.8717804916279357  6.0930530823112097  4.7280728061169057
  6.3356040823559390  2.1906559676014052  0.1813799877161706
  5.8185175943505545  2.0102846840672921  4.4812655736203224
  5.8800638746899825  6.0932264163897889  0.3828847343144476
  6.3248469292775766  6.4611633273182738  4.5235704317093699
  1.4940569339057348  0.0890737145650269  2.3750048210952293
  2.1672833913351628  0.0598376974417941  6.4536530555877620
  2.3899050311956751  4.0436733445876687  2.7022360820172371
  1.8553716276277590  4.2503993954769772  6.9148303010879415
  6.0121233180716516  0.2155976014601946  1.8779841937775525
  5.6554456881437911  0.0364253712505306  6.2532145911244230
  5.7517485718532138  4.2122821115019065  2.4769600706476482
  6.1516828917567743  4.2250387468184689  6.5742124378073949
 -0.3629710154511950  2.7321787236602311  2.7393781997060800
 -0.2244394379855796  2.1071501504011008  6.1714917834402430
  0.0100354615840788  5.8334753353820412  2.5065488527127915
 -0.1805498250397781  6.7209307206405766  6.7139057006201703
  3.7478253184439696  1.9138114211629718  2.4745806254398377
  3.9294099934934898  2.3729946863696094  6.4643990502279900
  3.9283521950828755  6.4956087987400890  2.2686889056879456
  4.0661364794295132  6.3160029633806882  6.4794658836807928
  2.6251679973007134  4.0008941177779302 10.1600561588192235
