Ba Zr O  H 
 1.0000000000000000
     8.3840000000000003    0.0000000000000000    0.0000000000000000
     0.0000000000000000    8.3840000000000003    0.0000000000000000
     0.0000000000000000    0.0000000000000000    8.3840000000000003
 Ba  Zr  O   H  
   8   8  24   1
Cartesian
 -0.1115874549567127  0.1864229743642236  0.4075832391203413
 -0.1497692005059092  0.0694267728509014  4.4749041575958133
 -0.3479952011940797  4.0368036277275907  0.4652662176737802
 -0.3892307138195498  4.2543920627872751  4.6895864516636623
  4.1552597460643108 -0.0032402405012623  0.2898234939561145
  3.7846790453822239  0.0618513735487155  4.5970453973514251
  4.1611449562446214  4.1045216130091360  0.1529777011318151
  4.0830784418828925  4.3877723710331349  4.4233060862640601
  1.8653263722448234  2.1420688521537183  2.6146647903075846
  1.7199101783160315  2.2669631748327426  6.6460363144163415
  1.9363245845872030  6.4579148830095949  2.4914998659368113
  1.7876016148830303  6.4089578482602381  6.8256461811890290
  5.9854466427645523  1.9661513592657682  2.5202127603933877
  5.9268077754846127  2.0361399801737701  6.6152879910974534
  6.0182544826214217  6.2910267004944256  2.4893282229759799
  5.9577449730779888  6.4873190668434635  6.4863527061835367
  1.8097845472802934  2.6830408541152155  0.4143965475153738
  1.9352149669688203  2.4188124086201004  4.6809792365235632
  2.1791742272588253  6.0867079959129082  0.5064160175530178
  1.6848141600338584  6.4988064391837064  4.5579734949882393
  6.2697947001860328  2.2165859797538774  0.4005825863063980
  5.3939671455814695  2.0076515340359533  4.5842878774879514
  5.8119522975067754  6.2995368028362959  0.0544028629476377
  6.0175211563357847  6.6342930767206880  4.5151868940510509
  1.8386194250563872  0.1233513295318876  2.1622667165664420
  2.0513602637911004  0.1727179360419465  6.8769872385883302
  2.3080610021884995  4.2252818889819839  2.6972211219058893
  1.8784987331391423  4.4484195762435599  6.3743762444169150
  6.2133933004026689 -0.0553918491722137  2.3889133011899339
  6.3514862263341243  0.0600365971486806  6.5828427304447121
  6.1071312562810265  4.3006553646855616  2.6107315541031912
  5.8948134711197948  4.2235349148022800  6.2461889456826523
 -0.1971808333044664  2.1676070860967980  2.6290668420863521
 -0.2743344333987068  2.2077420957782357  6.4570510960755430
 -0.1668325263508421  6.1614419838694827  2.1872292725750420
 -0.2576590725094345  6.5669744309142004  6.7148355995507893
  3.8733947665154203  1.9083409189028124  2.2159839931193797
  3.9543499277131944  2.0750161053911200  7.1414806243507210
  3.9765572119300709  6.4125867190305801  2.3210647048590229
  3.9905370397389008  6.2796241009377152  6.3455385220436931
  1.8880528296258974  4.3450812377272969 10.0978843128702778
