Ba Zr O  H 
 1.0000000000000000
     8.3840000000000003    0.0000000000000000    0.0000000000000000
     0.0000000000000000    8.3840000000000003    0.0000000000000000
     0.0000000000000000    0.0000000000000000    8.3840000000000003
 Ba  Zr  O   H  
   8   8  24   1
Cartesian
 -0.3270805305021353  0.0973065236947056  0.5795635494967765
 -0.2421622477694561  0.0480285662557707  4.7500375403289432
 -0.1450605109435044  4.3836330308993938  0.4516993714984072
 -0.0944298945920684  4.4110006929271668  4.4440016729425240
  3.8776056799241485 -0.1041422132221423  0.2731356476397987
  3.8133005741614556 -0.1672518368488293  4.3320511588417041
  3.9071224301374965  4.2567457047760877  0.5663426707027313
  4.0351839572058674  4.2660444313675079  4.4233365533670996
  1.8991003577155079  2.1372902810257681  2.5843394104545556
  1.9696382678377584  1.9952633606401364  6.6901021055651260
  1.7061898319333899  6.4424152994426800  2.4550624290600966
  1.7834150243888331  6.1082249395510271  6.6453526410036430
  6.1230160018480140  2.2707242699521628  2.4928092190743993
  6.2374881702421678  2.2230184473478345  6.5718718526734605
  5.9340616805434072  6.4833669058980474  2.4630376467178396
  6.0641363533817367  6.3431491805450797  6.6531088722701153
  2.2436117392363708  2.1146010069897576  0.2764676556482881
  1.5980061402393861  2.2233726749313747  4.5907194320784859
  1.9060634928255216  6.0528121899022693  0.3788052351656068
  1.7603628575019854  6.3327242407283970  4.4612128679750835
  5.8103294606327722  2.1919382606694602  0.4164460396012711
  6.3120277896730039  2.2329474283511757  4.5553345480964307
  5.8905511984038386  6.5511155046903129  0.3868873418490542
  6.1826635682169666  6.6773396191486087  4.5221446817935389
  1.7713369257598164  0.0599597520260221  2.1360387789985293
  2.1701996747907404 -0.0682397691325596  6.3938872435516831
  1.6901478436035959  4.2673803766726390  2.6620762158832831
  1.8077487973675670  4.0487527259099725  6.7718060609006425
  5.9137886556349741  0.1695117224165014  2.4544891448508750
  5.7232548007957176  0.2560985977327445  6.6032609137645331
  6.3100702423655850  4.3922257867130829  2.5243063519928817
  6.1035028235959539  4.4044273736455954  6.2974805577287674
 -0.1879242569484249  2.3724154644694821  2.1627634958323645
 -0.1677146505324592  2.0521590498860052  6.6892582390907815
 -0.2499016617357425  6.5828199056269119  2.4075620599829723
 -0.2203163299623926  6.5481794363960741  6.4888114006815591
  3.9636304906073674  2.2515721779828692  2.7500228093796979
  4.0394390919359786  2.2045116589480918  6.0050925446257866
  3.8639031281903464  6.3466987526118261  2.3766489230635499
  3.7732602443979548  6.0841549773144585  6.7200755760562716
  3.9579523312197202 -7.2154095745697875  6.2005277696389749
