Ba Zr O  H 
 1.0000000000000000
     8.3840000000000003    0.0000000000000000    0.0000000000000000
     0.0000000000000000    8.3840000000000003    0.0000000000000000
     0.0000000000000000    0.0000000000000000    8.3840000000000003
 Ba  Zr  O   H  
   8   8  24   1
Cartesian
 -0.0056143893027963 -0.2267515072008482  0.0996570921108311
  0.3516409210840453 -0.2179518816591533  4.4046120939716991
  0.5590122253283003  3.9233831891007567  0.0920210627801357
  0.3589242243961664  4.2524120348298355  4.5506007018266610
  4.4504779722133794 -0.1332102164713253  0.6965341170996350
  4.6998326880708783 -0.0936560941371093  4.7529414771980285
  4.5032068557728264  4.1047341509334547  0.3477555668532337
  4.6036499306564593  3.7368643101536168  4.4988565491544739
  2.4478061665273869  2.0806838988895198  2.4960186123043524
  2.5467573192882900  1.8495273789149984  6.7200140625456690
  2.0710701690194231  6.1209174646789926  2.4282730431012824
  2.6926375841817931  6.1231449002500300  6.7029787178012565
  6.6505100856563901  2.1009711805636115  2.6079662837762623
  6.6284932727277530  1.9021026339375486  6.7952142339223682
  6.5486796610139582  6.1155758602545953  2.4992531188768639
  6.6869556420647340  6.1230972434124791  6.6648035099250844
  2.4176696286081674  2.1449425523292742  0.3895450677087968
  2.7087934189804783  2.1337128171896587  4.6485200137948359
  2.7440555462782976  6.0413255131622092  0.2569908727150090
  2.2735264242513407  6.3196215748002249  4.4637695087697375
  6.8928844955512973  1.9820354489164722  0.3654616871806698
  6.5448760373195141  2.0354017125158315  4.6572690307782389
  6.4473427153322245  6.2122266297247526  0.3309457628173003
  6.7727852751430682  6.2063533790062522  4.5193316705630995
  2.2258013607917553 -0.1926656124034543  2.3872327703158618
  2.4929895064005603 -0.2414820918744481  6.8898226624758916
  2.1759116127563214  4.2002800465233108  2.3526622167576785
  3.1379842441490591  4.0155792301561410  6.7155182800317288
  6.5259875108137138 -0.1056454150060914  2.4879226695402270
  6.8345025856229862 -0.1889191312173029  6.5349856103953385
  6.7924985904237047  4.0403558155489181  2.0336212339816733
  6.5757537089424529  4.0868728619090566  6.5822727987892975
  0.3831704563830780  1.9341761595535862  2.7158091741541597
  0.4103497242785735  1.7680959125680109  6.5888820073830443
  0.1640853667635512  6.0611759886954362  2.0619817781199927
  0.4996246144540420  5.8806853042491349  6.6201386080659761
  4.5190887719680335  2.1137598913934870  2.3678917144810745
  4.6395181041464335  1.7974313685609185  6.8527240948133503
  4.3573760623978943  5.8693875436611451  3.0378319717782816
  4.7537994439130165  6.2046179891656159  6.3426066511410344
  3.6882064211505172  5.9581644555200972 12.0864757383278913
