Ba Zr O  H 
 1.0000000000000000
     8.3840000000000003    0.0000000000000000    0.0000000000000000
     0.0000000000000000    8.3840000000000003    0.0000000000000000
     0.0000000000000000    0.0000000000000000    8.3840000000000003
 Ba  Zr  O   H  
   8   8  24   1
Cartesian
  0.4097819945749308 -0.0927018306591321  0.4632853212279912
  0.3033060929722529 -0.1323084465634496  4.6026921022622806
  0.3381899958109523  3.8564554026756133  0.3713785286054097
  0.3358017501976159  4.0931439886659948  4.4925211586762357
  4.4091329953779148 -0.2399057914338820  0.0562984645483487
  4.6462482579045599 -0.0501304401180541  4.5846295632551719
  4.6004579174585762  4.0812582667626751  0.3364681348889364
  4.6699341772360654  3.9275248778198160  4.7508948768532822
  2.2344970841029923  1.8967869316774628  2.5615516492433379
  2.2645788122637684  1.8655098616296864  6.7243005326102105
  2.2523792883507086  6.1555047029682299  2.4101945926025472
  2.4248393873051777  6.0940699681557478  6.4859157257811804
  6.5784522257524918  2.0528104855585960  2.6008741806825690
  6.5302602226651967  2.0481635763666755  6.9442501845846154
  6.5168577352890784  6.1424444145812549  2.4247256070631193
  6.5376861306857137  6.2568765659143555  6.5868261957077809
  2.2279804451841252  1.8649127647297297  0.4624340388910370
  2.2595616357429584  1.8105742569355212  4.6515095373344346
  2.6188921172379640  5.9673435124869680  0.4042525180110383
  2.4621325751193250  6.1681863917120117  4.4544170372672003
  6.5905321417015399  1.9441896905014222  0.5857072727324744
  6.6891537166744284  2.3036951183790757  4.6628983233471839
  6.5956577373294687  6.1806315287162334  0.3607586420599234
  6.6667300332269681  5.8506349657130050  4.4893338486861580
  2.6321416211817077 -0.1751977473926344  2.5135735848195746
  2.3675648244843197 -0.2688844505355534  6.8972208863413877
  1.9896845546312429  4.0949225897855293  2.6669679295940534
  2.5946505027144080  3.8959824717757670  6.7242450004629131
  6.0354134492707381 -0.1411511259355550  2.5319998447246532
  6.8528716104554546 -0.0116061792724334  6.4170966066640052
  6.9296722104282287  3.9899842707490389  2.2406350332081351
  6.5819045059590113  4.0706998059324420  6.5837468313361676
  0.3289200511523360  1.6428104598074149  2.5633326133868635
  0.1358390026552391  1.7266066526554635  6.9015873966622454
  0.2517994357322262  6.3349609784492449  2.5235422714469786
  0.2780021006947848  6.1226499319857517  6.4570595861568707
  4.4676452066567061  2.0295529841206510  2.5889924451374644
  4.4773348900665049  1.9687218015271850  6.6945598769601844
  4.4072351421047262  5.5932742288650790  2.5317016611920367
  4.3972763547596792  6.3123033070403620  6.3960895340833002
  4.3138681950135283  6.2217066372359282 11.6526327658420072
