Ba Zr O  H 
 1.0000000000000000
     8.3840000000000003    0.0000000000000000    0.0000000000000000
     0.0000000000000000    8.3840000000000003    0.0000000000000000
     0.0000000000000000    0.0000000000000000    8.3840000000000003
 Ba  Zr  O   H  
   8   8  24   1
Cartesian
  0.2280534529441819  0.6673341666404217 -0.3397713136608024
  0.0123109736351030  0.3876976442374143  4.1946222223609322
  0.2993131152133638  4.5458366758598512 -0.0340521885382607
  0.3556078251432050  4.7775121663084823  4.1037593569454440
  4.3469257950633651  0.3037835175866850  0.1623896287674936
  4.3173378610595998  0.5294331694266888  4.0774573851471079
  4.5123163295897362  4.2645533780711862 -0.3631518150192505
  4.6122990479721411  4.5393369130590058  4.1882547518924849
  2.0974963026603923  2.5456556157107166  2.0423094560706145
  2.4218575175144181  2.4927812950181067  6.2681098482779900
  2.3469282700702925  6.7019857435327479  1.9201409558835749
  2.5634593058254111  6.8044146807816350  6.2750801299238868
  6.6001457229544735  2.3641889658001536  2.1094908882622478
  6.5826763339256846  2.4509902894938409  6.1540077582470749
  6.4175174342570163  6.5258226005822886  2.1375155366427903
  6.6540676330586868  6.7037399405791840  6.2181887265334881
  2.2656774548224048  2.3131620017450896 -0.1165480585874212
  2.3598862153307540  2.4566530463877245  4.1049442347385270
  1.9042839593336565  7.0657687410462664 -0.0617070019940092
  2.6004241215959936  6.2106497088569146  3.9276387926432230
  6.6758863518984235  2.7182916589344170 -0.0319272133321488
  6.6727526399024013  2.2002117970558475  4.1448265817271270
  6.6253966443418708  6.5752709748848632  0.0089810457963022
  6.3156062792468788  6.9715223066496987  4.0845423638051033
  2.4515068593577127  0.3721975574375803  1.8173908469580902
  2.3432654890356552  0.4326428944089590  6.1400803650895357
  2.0783188352456228  4.6261408682795313  1.5740307689791619
  2.7888327685013126  4.5658215339916941  6.1456671032576793
  6.4770977138722792  0.2547959481866106  1.9468588680001295
  6.5235115738141616  0.3050342310607922  6.1012116617659311
  6.9497157255742792  4.3022746366250137  2.2952830407316891
  6.6141486662986617  4.6683876372162443  5.6545081799173573
  0.2406820122196405  1.9198907643388570  1.8890067189941055
  0.3898290319419475  2.7830059336021327  6.1654249033261701
  0.1558322135388624  6.7767487521875251  1.9693931759772778
  0.5158883606894533  6.8699294271828011  6.1447443105081705
  4.4378716815520072  2.5001050465316084  2.0043546126656637
  4.5630572781690351  2.0506282317397981  5.9527265636449442
  4.4243181570883197  6.1552050062767139  1.8545663874841969
  4.6228507124665210  6.5812902932413868  6.6623343649420290
 -0.2118271612801611  7.1193115120652743 17.8254032124003672
