Ba Zr O  H 
 1.0000000000000000
     8.3840000000000003    0.0000000000000000    0.0000000000000000
     0.0000000000000000    8.3840000000000003    0.0000000000000000
     0.0000000000000000    0.0000000000000000    8.3840000000000003
 Ba  Zr  O   H  
   8   8  24   1
Cartesian
  0.2668454397245320  0.5665961873387629 -0.1218672239171118
  0.3223609182863761  0.2190847707548438  4.2876992813137429
  0.1678208139575642  4.7401055475500016 -0.0499738828820912
  0.2598171414016920  4.3976465040190753  4.1626691563583433
  4.4697585168320311  0.3741644172874963  0.0076623799043036
  4.7237562656938241  0.3244987522051448  4.1267160375165250
  4.4814747464687450  4.7369992974229653 -0.0292308253527650
  4.7044932906316257  4.6225443238890858  3.8776783259701251
  2.3588123140758479  2.3606960670343593  2.1262486444558437
  2.3353394699050316  2.3343833953420186  6.3268167849370238
  2.2831762713121990  6.6459832672298411  2.1857404293338965
  2.4042097901620552  6.6576588775024561  6.3063039625271360
  6.4384294544735283  2.5237652401863788  2.0319545510839947
  6.4952650559136078  2.4542865809265271  6.0131751335402530
  6.5387555573083276  6.8084391271749904  1.9108370550233054
  6.5180121359902552  6.5536459065740340  6.0067906482412692
  2.6878991548039677  2.9743685811352951 -0.2571756827171947
  2.0113836995779621  2.3567799835761218  4.2540353231284218
  2.3101405260339956  6.4600395594204425  0.0248926430261981
  2.3091615366571259  6.6483533891060445  4.2803745236668309
  6.1441911541357044  2.4799138181177875 -0.1575111658748563
  7.1073858771073199  2.3315947930062477  3.9529586511169579
  6.8321488874781053  6.6610872841177970 -0.1563817357494325
  6.7433725664159869  6.4873511094090057  4.0204326490992397
  2.4537079539578910  0.2027207447350657  2.0390993733611089
  2.4463987118507111  0.2398386479455950  6.6513035081617478
  2.5089899856377467  4.5834262260022856  2.2612795103964736
  2.0672170688344447  4.5004834598492049  6.0971250107494832
  6.4766393928438593  0.4339790300072325  1.8155817192190149
  6.4753213981168756  0.3312281478949360  6.0713264255521926
  6.4372953232275956  4.5820493295152378  2.2121032569376715
  6.2450484629916891  4.5467518697622280  5.9306328585858354
  0.3168317497836932  2.4443611182631191  1.7128796016352421
  0.2510674063994318  2.7649362191728390  6.5399074150382024
  0.0915322797813711  6.7210373412594562  2.0342756066468284
  0.1293489422755431  6.8024970984859587  6.1107793819613727
  4.3599626084983063  2.4771148344494334  2.0502208599606129
  4.4031004165507346  2.5975626479990992  5.8086110276851226
  4.5323252272117474  6.7383245656455060  1.7154117350853109
  4.4437749607796180  6.5799455371668527  5.9568443776194906
  3.1523885626719710  4.3727226572797848 14.5347848640316055
