Ba Zr O  H 
 1.0000000000000000
     8.3840000000000003    0.0000000000000000    0.0000000000000000
     0.0000000000000000    8.3840000000000003    0.0000000000000000
     0.0000000000000000    0.0000000000000000    8.3840000000000003
 Ba  Zr  O   H  
   8   8  24   2
Cartesian
 -0.0907130722619192  0.1193354119066038  0.1748641619576686
  0.3825780483277708 -0.0229036290904554  4.3281848659851603
  0.1518564844712375  4.2508477448396453  0.1191849876387978
  0.1221970805476932  4.2968564864789291  4.0715006824137108
  4.4123802227358269 -0.0258284833651170  0.1373195273372936
  4.5613368440537778  0.0728374407678466  4.5530966807207713
  4.4936361016134665  4.2739255208877340  0.0894965443736119
  4.2064734887086370  4.4972415110724828  4.4731570065817170
  2.0755014905139730  2.1603169005996610  2.3027304277372358
  2.2614201728547867  2.3134894853283052  6.4206274474252973
  2.3214426926869707  6.3377736276868548  2.3441399438921851
  2.4573279735187996  6.4658750396302951  6.4994780094108346
  6.4221416830075437  2.1915352838635900  2.2572289437527600
  6.4454374137908852  2.1418273534034808  6.3525781402335753
  6.5511672590892962  6.3994459368215324  2.1892847637796495
  6.7138614439166711  6.2802842583998588  6.2978572208036274
  1.9369012981781906  2.3350175081636144  0.1164914579071425
  2.5363690845363229  2.0875352850809521  4.3390706943247572
  2.1729676798772264  6.1690545748967285  0.1914468998076292
  2.3317704728649091  6.8111240613715287  4.4536779159232029
  6.4399560171734480  2.1959538761639821  0.0821106286963155
  5.7412893249372869  2.2329780644512240  4.2280955627470185
  6.3654077406180720  6.5328063797380951  0.1654866298672725
  6.5260672315999573  6.4397407828865934  4.3057779253106858
  2.1434156468858028 -0.0147803843344758  1.9506005046755275
  2.3076868738639917  0.0495662857265777  6.7260486385733014
  2.4310032229724481  4.2988550161640307  2.0369129458595028
  2.7385228076973540  4.2597828025845521  6.5902047795611622
  6.0476282706529627  0.1299426096699440  2.3437961479377099
  6.6379072686690321  0.0051135649413088  6.2773280601796682
  6.7523728719901372  4.2199904888041075  2.2102747976515849
  6.6253011563319628  4.1909570947294750  6.6527794332530394
  0.1193489487897696  1.9926698172156414  2.7474505576933863
  0.1535948707638466  2.4334577898189593  6.2108381190013420
  0.1838968578889700  6.2933344912736517  2.0465786612048777
  0.4287816887791962  6.0515462977639114  6.1801168573583904
  4.1967551942344006  2.2249143793742752  1.8943137947917010
  4.4135125572779614  2.1192584757913608  6.5385560116536725
  4.3100053460382517  6.2782192975218658  2.1599980098120573
  4.4667972865723522  6.6137717623169179  6.4328639204233937
  2.1341381374737729  7.1462939946627673  8.4443478981878126
  4.1509166007882836  2.3115825772489424  2.8816746599513809
