Ba Zr O  H 
 1.0000000000000000
     8.3840000000000003    0.0000000000000000    0.0000000000000000
     0.0000000000000000    8.3840000000000003    0.0000000000000000
     0.0000000000000000    0.0000000000000000    8.3840000000000003
 Ba  Zr  O   H  
   8   8  24   2
Cartesian
  0.2657411160844837  0.2904807851638214  0.1679628105383692
  0.1174303164873773  0.1917971062234681  4.5316936763043483
  0.1672744681742290  4.1811955921014965 -0.0337862852929558
  0.2869658608496523  4.2873369129484642  4.5014115431067836
  4.3611715516353780  0.0235679216399361  0.0451582871426195
  4.6196839119689601 -0.0535638769584369  4.3075286300448479
  4.5059752209898951  4.2525401972193198  0.0365154543280410
  4.3300170654775449  4.3478194029655022  4.2788042109190565
  2.1147124011867962  2.2988516509939370  2.4419107552417776
  2.3394690380673300  2.1362258301897721  6.4723711383819529
  2.2145607691195122  6.2847880088485111  2.2839967475841876
  2.1549860090532040  6.3491553961669185  6.3290544437370846
  6.3378025353941432  2.2256476838674639  2.2508514613823900
  6.4237702664989076  2.1685799525780967  6.4829194228895108
  6.6034696483319530  6.4411354028037868  2.1196095930695864
  6.2836857247092368  6.3149551639548323  6.3117852499492866
  2.2325601979634460  2.2255443004531079  0.3114915089268568
  1.8664171468647863  2.0629858978119038  4.3514863058631983
  2.0873455619712886  6.3433587156676756  0.1466668542294485
  2.3657553075301241  6.1855735451262106  4.3128347952296107
  6.2666294366314501  2.2855179191234503  0.1235580591611637
  6.3752152468635126  2.3016445715082789  4.2660837607960165
  6.2942741015861987  6.5080882357633927 -0.0584913858823753
  6.7852859300545010  5.8753565733406541  4.2132132542590908
  2.5347298224324510  0.1547307171433546  2.1824305697431963
  2.0263922181765976  0.0783178974168519  6.3209256669512417
  2.9899727394836506  4.3276035156036752  2.2201586828192874
  2.4778462533680163  4.2711895163041369  6.6136392748395014
  6.9730106370348581  0.0779790508464795  2.4304465765511565
  6.3553980085175379  0.1989745641573970  6.6460551502326979
  6.2041059796909535  4.3147558380118829  2.0339292889541061
  6.6967015875873228  4.1792616097756907  6.5368331715267338
  0.0695925355261176  2.5328164254572276  2.2527760026701240
  0.2423893929833086  2.1180381430937616  6.5609460879475545
  0.1651982902333999  5.6441462200023258  2.2062076452572028
  0.1053629104901044  6.6101249374864857  6.6785835300565504
  4.1918143629096312  1.8633728090293973  2.2175173344389760
  4.3307657755355322  2.1565862214744866  6.3647797248323306
  4.5954779622369646  6.6780155170536268  2.1954738704619330
  4.3032784060818141  6.5493669645286037  6.2600420648242192
  3.5848136016426042  9.1482170662573683 10.6217222520613284
  7.1772588570872715  4.5255200195778027  2.3100343991129488
