Ba Zr O  H 
 1.0000000000000000
     8.3840000000000003    0.0000000000000000    0.0000000000000000
     0.0000000000000000    8.3840000000000003    0.0000000000000000
     0.0000000000000000    0.0000000000000000    8.3840000000000003
 Ba  Zr  O   H  
   8   8  24   2
Cartesian
  0.0116260764525051  0.1525880373223073  0.1886159284470393
  0.1717759557044798  0.1220816400059629  4.2784760561601098
  0.1252699040360535  4.0539932491636135  0.2073434528182046
  0.2692623141764064  4.3806096636406293  4.4334682740198206
  4.3485113445692152  0.1925254749164583  0.3148798212180887
  4.6915612783944933 -0.1368365323846006  4.5378232368033133
  4.3825432851950197  4.2110374072119505 -0.2355975849082707
  4.4198282612108519  4.4035321802284182  4.3280145256069558
  2.1664072762749256  2.3231652203954294  2.0742151876892536
  2.2432307713231197  2.2477593009356962  6.2677198937205558
  2.3088016214821390  6.4523918039105101  2.3727516980609051
  2.3102007390599346  6.4376807077221994  6.4890411538721198
  6.4509780310804707  2.1492049803133364  2.1601875283350074
  6.4191736786064384  2.2375256451069863  6.1955322292171893
  6.4670090821645951  6.2300349068892098  2.2365148042409033
  6.4694766169486710  6.4244361409238264  6.5941009743571408
  2.3058190524081490  2.2268711983571392  0.0311640808703091
  2.5659803181352450  2.1259291830257752  4.1426184516097457
  2.5696957845326551  6.1591547850393811  0.2627579018954594
  2.4407928133249697  6.5200584295485013  4.4789526482833004
  6.4132399781546399  2.0962728391669407 -0.0842907667994609
  5.8696763844086464  2.0672834116680163  4.2259735463148136
  6.3983962750571202  6.4200614457808065  0.2543204395211620
  6.8060062897264437  6.2678965115710081  4.4898854462364985
  2.2888768768855186  0.1006807524480884  2.2565134966808564
  1.8643525118982112  0.1343723198125120  6.6798115195871484
  2.3813566019877341  4.2597032695221415  2.3048764435450995
  2.4380058788737529  4.2278607164692428  6.3600778302540197
  6.5218739776734722  0.0773878874408124  2.1669922201908047
  6.6970926482306155  0.0774813892339266  6.4862958588262360
  6.6551485740502345  4.2003794217442136  2.1428146070857150
  6.4907536248533511  4.3854738451026014  6.3185356213649664
  0.0194807445144221  2.2273477381467135  2.3803942569357615
  0.1212743615524772  2.2909710889472885  6.5410211603851387
  0.2713843512100444  6.4976774777477964  1.8961763960513076
  0.2653081367314784  6.2128433866938835  6.8821333069194504
  4.3542170612677440  2.1159735812645164  1.9781023109328000
  4.2961049904266897  1.8847013059766873  6.3785694896139971
  4.4468485305215575  6.6317972548188004  2.3990768090871804
  4.3455827991280600  6.3616848810706141  6.5780741723219602
  2.0717202561946193  6.9928414411208317  8.6153131258983979
  4.1990824485224536  2.1420451620760903  2.9709401777948896
