Ba Zr O  H 
 1.0000000000000000
     8.3840000000000003    0.0000000000000000    0.0000000000000000
     0.0000000000000000    8.3840000000000003    0.0000000000000000
     0.0000000000000000    0.0000000000000000    8.3840000000000003
 Ba  Zr  O   H  
   8   8  24   2
Cartesian
  0.0682536560239328  0.1834606692898175  0.0109774287721080
  0.3421185332504650  0.1216015863462267  4.4768841066473541
  0.2664408073658132  4.4329493874646309 -0.0177462320759757
  0.2237669790690228  4.2491289144621316  4.4781638494475962
  4.5063187126868041 -0.0263775050200074 -0.0427713403556121
  4.1855791459813299  0.0920366396688182  4.5927756658555108
  4.4481816753213232  4.2891159094155915  0.0121091805061853
  4.5219117142537755  4.1555693574778001  4.1951475999361687
  2.2434996362626398  2.2609356604164454  2.2247495477591270
  2.2833958242755426  2.2658340943347559  6.4436936342745108
  2.2693687387463166  6.3608943640736113  2.2689540802700834
  2.2402456710924152  6.3064303600902543  6.4314902502681575
  6.3097758926725582  2.0802323890722096  2.2440527832241188
  6.4888697187991378  2.1977463436021134  6.4950089553901256
  6.3732656586710243  6.5941437856689022  2.3724253495906886
  6.4285979446704395  6.3233597168722104  6.4693560621737598
  2.3143726934226967  2.4437413158206867  0.0814285728643020
  2.3014514833418342  2.2620835406284896  4.2909556311977148
  1.9937882477690654  6.2174554124233996  0.2168998299022689
  2.0665139025684320  6.3357418883972434  4.3402610471602330
  6.5954263420795582  1.9953163960191540  0.2080925878735991
  6.5195190050393261  2.0015887618061283  4.3693881917641013
  6.4966711374521982  6.4498298000924450  0.2477883531426797
  6.3867302971605788  6.2379532700467752  4.4197232630923962
  2.1421500908226618  0.0985949151179122  2.2331553324990869
  2.2089201448019113  0.2380700293491500  6.6580005982361614
  2.7042035595455856  4.2831522716170332  2.1754088414289989
  2.5053062964103017  4.3004975341003693  6.1507927032806808
  6.8145635889575340  0.0786373261694442  2.3747477069544436
  6.3657054583268167  0.0196070673287188  6.4001534331240535
  6.0615948022391963  4.3352980407315860  2.0609839507524419
  6.8294078661655151  4.2588480590818687  6.4288898288203917
  0.2265931135786715  2.1087355986392851  2.2072575863230748
  0.1975450152119978  2.0794581171250215  6.4805269131850816
  0.1146611521811696  5.8679946973665773  2.2343553376420382
  0.2247500494885764  6.3038448359064025  6.2270962707645241
  4.3693469861358043  1.5696859085117187  2.0412883367254944
  4.4800627754596132  2.1161641584486599  6.2742143519675482
  4.2585771052704047  7.0126298729807033  2.3764123448821510
  4.3427910452123957  6.2170827568339204  6.4615492315089487
  3.1829114534614353  8.5980260021327481 10.6861153012011432
  7.1331782154447945  3.9897422284803925  2.1314876025683431
