Ba Zr O  H 
 1.0000000000000000
     8.3840000000000003    0.0000000000000000    0.0000000000000000
     0.0000000000000000    8.3840000000000003    0.0000000000000000
     0.0000000000000000    0.0000000000000000    8.3840000000000003
 Ba  Zr  O   H  
   8   8  24   2
Cartesian
  0.2380066958018433  0.3442595518421888  0.1046367562190922
  0.3384735269149545  0.0765320565839883  4.3748361834586635
 -0.0196331229647271  4.1859963305131220  0.2687356976890728
  0.2568971721723904  4.1802465869575860  4.4157968121618190
  4.4924787616686306  0.0646242722605844  0.0103805821969126
  4.4214332297543493  0.1629762098474893  4.3541424640005584
  4.2582614314784646  4.3615668188903038  0.0026105623216657
  4.5044962170185965  4.3172530443814754  4.2761300764951402
  2.1757112992005014  2.1135455745491569  2.1664316155932872
  2.2862205546492582  2.1975723311341691  6.3949885495289243
  2.2651934167613197  6.2854882086686761  2.3388003119770158
  2.3374688354164803  6.4928965706732713  6.3422070814101588
  6.5025559946033313  2.1298078502444402  2.2951040990009739
  6.3756174845391866  2.1491660885653125  6.3784164563278685
  6.4223188293278328  6.3677403677855722  2.3365971928509510
  6.5476827548860852  6.4504231599898718  6.4898056492466756
  2.1745604956115479  2.4027328959541090  0.0844201578511244
  2.3308807398541678  1.6105419967147121  4.2982575415321076
  2.3856575487115674  6.1916939953341226  0.0726398371297434
  2.4279692469739302  6.8104860571739216  4.2683067756764457
  6.2206650351579373  1.9817718998801355  0.1638208593725352
  6.2203445826579236  2.2034878976150538  4.2900432692644381
  6.4380937783839638  6.5976755035298877  0.2523540067607954
  6.5134014671711951  6.3156367697097817  4.4645518046337687
  2.2856146302272515  0.0111786952207518  1.8719854258132367
  2.4019768471235485  0.2516205611835900  6.8002771437883460
  2.2577704093226396  4.2064603593110057  2.2765509398934527
  2.3952002206667498  4.3362960915830513  6.2543060551574055
  6.4687657595100045 -0.0002754070976494  2.4576980428512094
  6.3255335246467821  0.0462441289516657  6.1849980918435827
  6.2025889944181793  4.1150171605514041  2.0529212648506800
  6.4653595308798630  4.2423139936691863  6.3282297741008255
  0.1542651577181744  1.9139020741426860  2.2194397799664909
  0.0564440509348632  1.9860023682916212  6.5938019136879538
  0.1668078433427186  5.7942180003594199  2.3959977583690115
  0.2593251949812574  5.9865506846262848  6.6552748963179917
  4.3162663402801265  2.2809673706475939  2.5480469191905133
  4.4580076570341580  2.3651473124349272  6.4609946189897691
  4.3420338651314889  6.4429886921856134  2.1331414083785174
  4.4059077125550461  6.4703265302317039  6.5855975371410507
  1.3262311914345402  6.3959674968496776  8.4206068913994176
  4.1950090887556915  1.7745691189098030  1.5850089911416785
