Ba Zr O  H 
 1.0000000000000000
     8.3840000000000003    0.0000000000000000    0.0000000000000000
     0.0000000000000000    8.3840000000000003    0.0000000000000000
     0.0000000000000000    0.0000000000000000    8.3840000000000003
 Ba  Zr  O   H  
   8   8  24   2
Cartesian
  0.2104518240634342 -0.0226149106570120  0.1454200810858708
  0.2606853152200735  0.1718389034811150  4.4270145450168039
  0.1963345617457755  4.1856750682650885  0.1614125466019530
  0.0723582475867500  4.2127003912805874  4.2619043675502430
  4.4003632412970175  0.0976206432451633 -0.1276925716403892
  4.4625915452615335 -0.0733466586280864  4.6775182615855213
  4.4353724130291106  4.3106718137894298  0.1724262335549262
  4.2154624660712940  4.6037481996251763  4.2973607655091914
  2.2791395385669517  2.3879736192089163  2.1421508857437321
  2.2234250041738690  2.3805438378414205  6.4386062293380997
  2.2535700281469540  6.3754853539644936  2.2625634138701276
  2.2670336771144384  6.4662497213410948  6.5283959240709430
  6.6261513683291700  2.1324983012403917  2.1175217610668580
  6.4677434424792182  2.0230979759911327  6.2510302650964658
  6.5171571113771973  6.3327774099889114  2.2704911059245574
  6.5702987456230142  6.2387328871282390  6.4000748352688488
  1.9516593628621797  2.2455932598908128  0.0967179228609270
  2.2674725187170552  2.1875434254741295  4.1652076996838296
  2.5435266186000289  6.5260644439740929  0.2125884751707753
  2.0150903779279710  6.4567130994562270  4.4226659666503307
  6.7253578070147872  2.2325537640088071 -0.0310015926096239
  6.1045879751607082  1.9765423161644007  4.1884903525485830
  6.6434121280522493  6.2686906915360270  0.2618025547635253
  6.5398291891506135  6.4503903626938408  4.2891091693911259
  2.0573012196844243  0.1419468207292832  2.1155682820666133
  2.1519115524481851  0.1753954832471625  6.4714551891738097
  2.3437246563575571  4.3928047298539781  2.0531015472099776
  2.3990637507770627  4.3598883240170494  6.6856287975475039
  6.7079649799795442  0.1319944127765409  2.1195358372748858
  6.5017463223917105 -0.0503749947175707  6.5906442411384170
  6.1487305052004251  4.2476056773612125  2.1852043501549478
  6.6530507799071570  4.1813720734581166  6.2716412493078906
  0.3178731281867854  2.3836395146933662  2.3773369859261617
  0.1137152130774297  2.1429336098523959  6.0971795896360135
  0.2758256779628376  5.9443966686552381  2.3397525622923401
  0.2062155991657405  6.3154526781593834  6.7868333144710782
  4.2856797267613516  1.6258339958795209  2.4046987393922592
  4.3313225729255889  2.1881707208517502  6.5031597125466263
  4.3206194801946953  6.7563497016967249  2.4006600433003893
  4.4475277871239038  6.2942726708342009  6.5151839353498238
  2.5972936342076447  8.4801496267057850 11.4225456493007282
  4.4032792809000014  2.0538725840945848  3.3102403364443216
