Ba Zr O  H 
 1.0000000000000000
     8.3840000000000003    0.0000000000000000    0.0000000000000000
     0.0000000000000000    8.3840000000000003    0.0000000000000000
     0.0000000000000000    0.0000000000000000    8.3840000000000003
 Ba  Zr  O   H  
   8   8  24   2
Cartesian
  0.1681239977270333  0.0846627644608093  0.0294678832958000
  0.0725209146582407  0.1266397786218990  4.5501571864881303
  0.3706166172592626  4.4229000240176228  0.0502369695264243
 -0.0029622800750126  4.3180531046437478  4.1211563652010446
  4.2329647016007694  0.0244191613083973  0.1607937535395739
  4.4891315986286067  0.1067945555524067  4.2859684855109883
  4.3103769623049200  4.0659338242921725  0.1166220111898459
  4.2852756276806288  4.2285671921545616  4.5817907349463081
  2.4393372791158408  2.3415880367622290  2.2436330491514767
  2.3964825111566999  2.0733867834265816  6.4119681491735907
  2.3824267821062519  6.3850746878209623  2.2282476006837126
  2.3291739365754900  6.3286508036986060  6.3095609946577049
  6.5418216859906346  2.1038309400884758  2.2020889392939806
  6.4533554091421825  2.1251548518119221  6.5503067226537963
  6.6367538898126295  6.6039826477107129  2.1708286692950520
  6.4725813827181380  6.3666970042045010  6.4316978395047384
  2.2966845528117013  2.4408030053019520  0.1805639555769076
  2.2571988961655762  2.2418591702168604  4.2966501817891887
  2.3275475150530029  6.3996999390214855  0.2241594552724603
  2.0384001443311353  6.3137203331776890  4.3133878864008910
  6.0187693783225606  2.3304666594250243  0.0859914814729987
  6.5685382336797336  2.2999053539117766  4.2753494768166629
  6.8500386881876647  5.9612070310461318  0.0878765437741575
  6.1627908049837794  6.3692228485375670  4.2282067423325929
  2.3629421104376589  0.1429905239803311  2.5511785628314771
  2.4082864838208460  0.0731181534701314  6.7461404116450101
  2.1386861932993217  4.3028364285324594  2.4560508212724215
  2.0806295757835005  4.2224825099317753  6.5034395566536300
  6.2858373884353398  0.1510440668363976  1.8483558762022332
  6.4968302788927099  0.0979001735675999  6.5732997896309406
  6.5572225774729702  4.3125212101574517  2.1826795680624356
  6.6343159304058608  4.3480429250137815  6.2510662674589943
  0.1802059752568418  2.0995721324863319  2.2419933395342064
  0.2504246093883809  2.0973920866437878  6.6705679344506290
  0.2656595947971669  6.6041998222861062  2.3657961392381677
  0.1661078385196498  6.5065898099591966  6.2628868299282034
  4.5502883863058710  2.3842476589433605  2.4566614320447213
  4.4605168637740755  2.0545142814961119  6.0786878712246164
  4.4974475426664497  6.2480212106651889  2.1399104082615965
  4.4359864187831066  6.3533631091483915  6.6714644435389419
  1.1958514708503925  8.5885883694206324 10.8019867651312431
  5.5550172350300739  4.7884822820359867  2.2435288815575194
