Ba Zr O  H 
 1.0000000000000000
     8.3840000000000003    0.0000000000000000    0.0000000000000000
     0.0000000000000000    8.3840000000000003    0.0000000000000000
     0.0000000000000000    0.0000000000000000    8.3840000000000003
 Ba  Zr  O   H  
   8   8  24   2
Cartesian
  0.2113556489053826  0.1289252549758956  0.1825667214082945
  0.1005855048666867  0.0413991897325152  4.1910168516716340
  0.2931977074963241  4.2972259375956341  0.2986185821528420
  0.0642354506826076  4.3497787120950155  4.2371266525953777
  4.6359858656674016  0.2519036764519626  0.1824302456088816
  4.3875046649474303  0.1640229366326663  4.5849225730953931
  4.3716487169602978  4.0356541357610576 -0.1032336031180727
  4.3407699123105816  4.4753185300598801  4.5210070989866873
  2.1753860663554767  2.2291946950915560  2.1132498551469485
  2.4157845093241481  2.0325020047434501  6.2625291639329772
  2.3998587037904628  6.5393455803392335  2.2994058976676657
  2.2089710592549183  6.2035326103791268  6.4223953042772006
  6.4277599643159107  2.2150610209449297  2.1947368987660218
  6.5482307722091821  2.1614874766942269  6.3564977377234166
  6.3830668279743090  6.3019283581929777  2.2966136119495846
  6.4947278126673851  6.3437790096724260  6.4359434365353207
  1.9019165871034664  1.9859542372841559  0.0832440193712204
  2.5115082982295851  1.8946856165145305  4.1598567009479943
  2.0658297523194262  6.2704153931068776  0.1560137485555857
  2.5102661376969304  6.5847616941446194  4.3227097238438370
  6.5084754319804166  2.5254931484224552  0.1499375894627264
  6.2000543412026952  2.1098631899873350  4.2091330379105205
  6.8912400848826012  6.4113212268694291  0.0129268349880200
  6.1183915102569975  6.4408327910403749  4.2458843595251539
  2.2900573414965661  0.1390162963701681  2.1961932400151376
  2.4150359476658632  0.0190333607068106  6.8174283945250718
  1.9082336089470329  4.3354688812754922  2.3053449004825084
  2.2683567151469197  4.1832894504541285  6.2848618374823948
  6.0688084972655281  0.0318702975912065  2.2758938173722632
  6.7026117536169547  0.0765515165771867  6.5111991898665185
  6.1163565618364215  4.2065775427901411  2.6153413870853774
  6.4564808991488762  4.2436867488019860  6.4456394608056620
  0.0373712041337712  2.1249602896660194  2.3849089208214735
  0.2303420060633970  2.1955295768496552  6.0049017356123580
  0.2944560461251841  6.5338191822940246  2.6850585935827707
  0.1808725656443245  6.0131569071396545  6.2226626431643943
  4.2436507830351839  1.9933537474837375  1.9496200229871317
  4.4986049259803016  2.1222827504859199  6.6635252226104518
  4.3057537593621493  6.1722042806117505  1.5316158983399430
  4.2784272959980623  6.1646119564552606  6.6571373000565970
  3.4132480825779683  6.1935522403911847  8.9030356415153484
  4.4598715353411835  2.9420050494646710  2.4299810760117397
