Ba Zr O  H 
 1.0000000000000000
     8.3840000000000003    0.0000000000000000    0.0000000000000000
     0.0000000000000000    8.3840000000000003    0.0000000000000000
     0.0000000000000000    0.0000000000000000    8.3840000000000003
 Ba  Zr  O   H  
   8   8  24   2
Cartesian
  0.1714277373562373  0.0717127907525034  0.0294588943865012
  0.1865340854042948  0.1223059459613177  4.4646769691953923
  0.1067603597860887  4.1986563763853777 -0.0159247840451311
 -0.1228034617077402  4.2042698082551073  4.3216992361693300
  4.5788556543970778  0.0587304943996662  0.0316789283004933
  4.1610741276901022  0.0691357731761712  4.4917358871517683
  4.5241441069888104  4.3453897212681438  0.2210829010938391
  4.6092509771182515  4.3087256801772975  4.3744942884411984
  2.0026654527155761  2.1420283305838201  1.9964495723374558
  2.3020917457593111  2.1796880867266606  6.3080145515279460
  2.2846507370013258  6.3462045293527494  2.3041277572203467
  2.3399045109848511  6.3702008229253879  6.3330286473506439
  6.4347329287596109  2.0886502826555047  2.2000960311118942
  6.4680767154424590  2.1912067145340508  6.3496677479795247
  6.4783917732254181  6.3545476360532200  2.2930867979312040
  6.4769959584948715  6.4717478512234345  6.5581712649672959
  2.0749323481494755  1.9215559685177965 -0.0672113587543153
  2.1357387060721766  2.2246282519787086  4.2995024228330472
  2.2120326717962557  6.7557766817052531  0.1164386452296170
  2.4229931401809472  5.8223786352262294  4.2802733498495913
  6.2958579570465742  2.1337428224088004  0.1325275325507802
  6.5660837523268629  2.1141978524041405  4.2268910491097200
  6.4483774075262899  6.0725764973052927  0.2107034183957812
  6.4869124776952471  6.6554138122791962  4.3753811105829366
  2.1338701674045986  0.1788388830830127  2.3772928455812852
  2.2608512219185135  0.0518693945219421  6.2551049467484203
  2.1574428904625149  4.2648684948095257  1.7864089419913827
  2.3853635086979557  4.4028860405646899  6.7715632556359528
  6.4052626638656642 -0.0440369185212635  2.1305792548486875
  6.1040839730096303  0.1189515870755390  6.3591687189056367
  6.2620761773002585  4.1967924683695079  2.3140602339921466
  6.5656843584530069  4.3767357916215319  6.3340240056130153
  0.0794575820959722  2.3560623565008054  2.2612974987546450
  0.2790643458068462  2.1726874977045680  6.1805794458604089
  0.1717606726116886  6.1918951997754714  2.2720186250264063
  0.2264010640463941  6.7304573934640013  6.5092759304551224
  4.2204256639782889  2.1028984745494270  2.1229726249926371
  4.5024980604019360  2.4377201142273037  6.3078133469148785
  4.3313645392865059  6.3797182421794476  2.2461360985751457
  4.4089509997819798  6.2635635804743170  6.5029745656975297
  2.0136506385354962  5.7198760106268827  8.5523774350835158
  4.2584623881735135  1.7562871385310970  3.0736218614982862
