Ba Zr O  H 
 1.0000000000000000
     8.3840000000000003    0.0000000000000000    0.0000000000000000
     0.0000000000000000    8.3840000000000003    0.0000000000000000
     0.0000000000000000    0.0000000000000000    8.3840000000000003
 Ba  Zr  O   H  
   8   8  24   2
Cartesian
  0.4118973824986142  0.3950471244942452 -0.0345600645500772
  0.1930275647543578  0.1068802053303120  4.4921000243215543
  0.5025180674924619  4.1758312537322695 -0.0391856984017177
  0.4566762595147135  4.1052009322745890  4.3811292359678529
  4.6021622985813266  0.0448743273098974  0.0164673295609277
  4.4766180538004612  0.1917043391086875  4.1525612631196012
  4.5205172470273798  4.2214771885959381  0.1217509552598974
  4.5777285576709534  4.2398154322506709  4.1969732497265060
  2.6328415352848586  2.0929523921407465  2.1482664303694099
  2.5525112392808258  1.9823776746952941  6.1502453561499202
  2.4747575095206602  6.3877620622699736  2.2218903131235166
  2.4294368514157392  6.2546555182482688  6.4154517453929296
  6.8140785610764194  2.3132726129667844  2.1361737578730229
  6.5158064274298608  2.3379132996833460  6.2950535493660675
  6.5704924137427492  6.5057817374102980  2.2327631112276114
  6.8208250008356170  6.4253937313694864  6.4323869083712699
  2.7988278263021398  2.2284505781282937  0.0070880091463503
  2.1391111960422378  1.9057303577070228  4.2854075956333588
  2.1581759124315272  6.3209915093706934  0.1424136939361090
  2.8117739265602455  6.3350297313039992  4.3998012764367598
  6.5723058724783527  2.3325633343476908  0.0628646244599085
  6.8661143193729322  2.1807465007378961  4.2133947727141923
  6.8619949624193435  6.0848978141470891  0.2252778838211769
  6.1353150019554379  6.4158278412565162  4.4413272657857457
  2.3465677831871643  0.0312578408950494  2.2510992826460430
  2.4508863994656456 -0.1512176916155728  6.3205619843646561
  2.5628662807280564  4.2504374021959173  2.3029108719418372
  2.5306985952987833  4.1537558583278669  6.3629731893290362
  6.8468818083359961  0.1193673243861060  2.2432360794915600
  6.3225162226166365  0.1039104974716396  6.3570636227516104
  6.9871030725131229  4.4276723320019080  2.3790752067560921
  6.5247284653330446  4.2981511345848569  6.4528379865431056
  0.5485814874957681  2.2493533214981762  2.1164414443967656
  0.2394255427951575  2.1457782178535716  6.5531497502483260
  0.4157187850843714  6.4139649303460518  2.5767736934826329
  0.3817834629513239  6.1241317022289801  5.8594821156394508
  4.5944697475222025  2.1374979884669378  2.3940218011588308
  4.4842901227834959  2.0505052467563316  6.2120640370551046
  4.5084692707015179  6.3721413136076084  1.8916676381187063
  4.6205029225603322  6.1343393283810732  6.6333185162403092
  0.1568473913870341  5.5188730994688679 10.6977095202145804
  4.8174964156463096  6.4850196512102647  5.6587344766050718
