Ba Zr O  H 
 1.0000000000000000
     8.3840000000000003    0.0000000000000000    0.0000000000000000
     0.0000000000000000    8.3840000000000003    0.0000000000000000
     0.0000000000000000    0.0000000000000000    8.3840000000000003
 Ba  Zr  O   H  
   8   8  24   2
Cartesian
  0.4892575893594865 -0.0853798877011331  0.1717703811444587
  0.3421744592803194  0.0468860920411566  4.3569113372355703
  0.0992761022941424  4.4180592783505253 -0.1032346874973458
 -0.0319665486169940  4.1044761523999167  4.1243940656065119
  4.7051440602512731  0.0454040717312675 -0.0023167860658291
  4.5713494338676881  0.2114902411505625  4.3285216192062137
  4.6644444852189331  4.3316474339234796  0.0710678370188968
  4.4945616101851371  3.9808003517297652  4.1917636365776474
  2.3978490371330121  2.2679775202193908  2.2086585779958154
  2.3608645417859377  2.0726788261302147  6.3111806720218127
  2.5872266311888756  6.5205200714724665  2.1935754113514299
  2.4589239145696347  6.2878541776121564  6.5305539561308610
  6.7169741556814735  2.2146915617519913  2.1037165105469509
  6.5700368848900670  2.1857190668839670  6.2794082287136241
  6.7905461283965991  6.3790408477669818  2.2004342727341641
  6.6950014160702311  6.4847599675248544  6.3754673899343839
  2.3333262541353452  2.3291530133590355 -0.0839662788015817
  2.3647181101492247  1.9818938519257832  4.2758785552638203
  2.3856999878650353  6.2433601308040751  0.1057265624579894
  2.7251697159666972  6.5078964016138894  4.3129745067395202
  6.4724956536574005  2.3488205679086391  0.0791479160766561
  6.5852709080929577  1.9727541711758432  4.2392890166388151
  6.7610410844118425  6.4713607778189761  0.1992107385618672
  6.4802017876842406  6.2401722376090216  4.1205627322694802
  2.5359721591301154  0.2091122993175038  2.1136585775461101
  2.2568163266923262 -0.0309230025000168  6.2472892469723922
  2.3278479825715519  4.3064976035318976  2.6612450101055476
  1.9733698677451632  4.3088271088185568  6.0665455326176252
  6.6163354743919260  0.1392061108295560  2.1516746663214423
  6.3977648705282073  0.1567963359199956  6.3321231212479061
  6.6195773212739413  4.1949232417374871  2.0688016127170350
  6.7498364796229131  4.1878158790745088  6.3004872079767980
  0.3658621582526302  2.1669659932000198  2.3066801643749946
  0.2668562364679207  2.0684998063990352  6.4719326732533569
  0.5097183363039205  6.3281739746269388  2.5723144693830702
  0.3416545936441215  6.7534124128320805  6.4447771481618759
  4.4173842635345348  2.4221865034011048  2.2278016233930513
  4.4357885803062702  2.4012284200630538  6.3194031135696065
  4.5564322151023608  6.2640576268787624  1.7929856975356406
  4.5950382641237866  6.3776854614629075  6.5111771328958481
  1.5368382415354003  4.6153539089346545 10.6396047727936907
  2.6864019169444013  5.4112764819642853  4.2705857321564853
