Ba Zr O  H 
 1.0000000000000000
     8.3840000000000003    0.0000000000000000    0.0000000000000000
     0.0000000000000000    8.3840000000000003    0.0000000000000000
     0.0000000000000000    0.0000000000000000    8.3840000000000003
 Ba  Zr  O   H  
   8   8  24   1
Cartesian
  0.2610032607139796  0.2736021536714572  0.0089181195992630
  0.4032427014709775  0.1631451609162520  4.0935416017620092
  0.1057230135315827  4.0661676312114086 -0.1296933546529934
  0.1989719227978743  4.2997119190535731  4.3594506955912964
  4.4874430159505687  0.1858446618558209 -0.0257372372134513
  4.5014888811457618  0.2206116671281914  4.0367973055588076
  4.5298176426812287  4.5075663695328885 -0.0457215960564793
  4.5690399594270978  4.4029501890063978  4.0640556771105736
  2.3760229471965473  2.1532058067526743  2.1727031094826379
  2.3429868848225728  2.3433480464244023  6.3990964292386359
  2.6386707295137919  6.4364216764448372  2.2399789615756611
  2.4711446326554487  6.5569459094720504  6.3262733736016203
  6.5411298437293750  2.1999400455986291  2.1189413104708890
  6.4626009786623850  2.1357731566719211  6.2435454689997574
  6.8233698505138909  6.3260495663438849  2.0905820859663629
  6.6735142939390144  6.4148103920699659  6.2382912013860299
  2.3533168977089267  2.1895189919351661  0.1094067330238649
  2.2798580518094282  2.3810683046554115  4.2465324362749959
  2.5288524410923396  6.6587120214963358  0.1717807868882220
  2.6973518880317586  6.2742067234131280  4.3012965958793146
  6.4976862352368618  1.9770197583607401 -0.0274901534841059
  6.6204736982414127  2.1813866700395810  4.1165602694908285
  6.9079717966987637  6.2699225193467854  0.0550619703017376
  6.6112506809149965  6.5131201744740510  4.2269573588166631
  2.4111529931292033  0.1130204570331086  2.3177027247710291
  2.5142037987708652  0.2425150175520829  6.0938030126723532
  2.3492675307983015  4.3399956199156673  1.9440599542968862
  2.5269021834893568  4.4241784981658245  6.5627391232624843
  6.6888054787841105  0.0459720295861759  2.1138339383707812
  6.3519611509752210  0.0946866458391186  6.4172866473609727
  6.3975233497706832  4.2993948643920215  1.9643269966360790
  6.6546802653589721  4.2606208457130545  5.9427180155278245
  0.2953343146079483  2.4407070768387751  1.9799986835172863
  0.2116562672763190  2.1910567563422965  6.4910049269375767
  0.6653925236520846  6.0622097442232281  2.3520919639078586
  0.3145602859173530  6.3835993245919722  6.2291495312435998
  4.4324458757990826  2.1064138063330500  2.2071469343556998
  4.4472825103936122  2.2018357110211109  6.3601708544007076
  4.6407161357108384  6.4781015177551984  1.9941376423330064
  4.5640686444743732  6.3902600585141327  6.4657841505643745
  1.3866304551110062  4.5420768573510877 10.5916373046584038
