Ba Zr O  H 
 1.0000000000000000
     8.3840000000000003    0.0000000000000000    0.0000000000000000
     0.0000000000000000    8.3840000000000003    0.0000000000000000
     0.0000000000000000    0.0000000000000000    8.3840000000000003
 Ba  Zr  O   H  
   8   8  24   1
Cartesian
  0.2965739840112248  0.1627865276540624  0.0833242650023038
  0.2921219398052409  0.1531248716674717  4.2216578980209940
  0.2590845702589095  4.4189567652281276 -0.0708408396477108
  0.4515052924795661  4.3543961659852402  4.1511462400184342
  4.6835940747236711  0.2000551289062036 -0.0822101245133005
  4.4285996044106142  0.1417909807027490  4.0418670266255248
  4.5901322487340925  4.2434566055155063 -0.0903977635905352
  4.6959036103007703  4.4433678334145155  4.3277941299199192
  2.3537906286385604  2.1818615787469708  2.0157472860144772
  2.5203758529646647  2.2540797800313346  6.2016096771770908
  2.4505166778004677  6.5987083666616071  2.1498928067123813
  2.5255788253688269  6.5467857814361210  6.3505913565277003
  6.5386033796745631  2.0944517926376003  2.1788945884990372
  6.6982006470818609  2.4080392787162079  6.3411028298648660
  6.6224884597997926  6.1926414318407330  2.0923002175527929
  6.6372579228020747  6.5898571667380663  6.3139225531535255
  2.4065402010852059  2.3851254570101004 -0.0951905572610131
  2.4051495425911811  2.1663378791749492  4.0026037934832930
  2.6569805285381278  6.3628368093351702  0.1621604928650198
  2.3253087101946064  6.5823083479890370  4.2320609801457199
  6.6869610069257464  2.5620501506845477 -0.0110381828234715
  6.6213882193950893  2.2788515738647512  4.2284564237841993
  6.6077039391153791  6.2871183234512200  0.0240528186314256
  6.8305788740668278  6.4480607027865045  4.2021871193685074
  2.4859011043068784  0.2155161744760001  1.7753115541002673
  2.3102619015593739  0.2488703758771038  6.2477353541842078
  2.5099003130918898  4.3134187231127017  2.1535683135845591
  2.7612833212502021  4.3221742513104475  6.1774355221941875
  6.4609652452161344 -0.0916203633825393  2.1006117372759201
  6.7412730989281586  0.2233057759052423  6.4175173109665282
  6.4940649477423031  4.1399951980853826  2.1713763199993146
  6.5555249888259235  4.5485647077208009  6.0859483124167939
  0.2553101406975744  2.2722423604095439  2.1997225102318492
  0.2800310251750008  2.5129532470076792  5.9234765260938484
  0.3438840790025662  6.2622005899608890  2.0304090805571815
  0.3918715180937743  6.4612121122151756  6.6109149960042126
  4.4913861074407366  2.0578752163937226  2.1627084951750128
  4.6486204566636715  2.1121686290411876  6.3292454125873672
  4.4644477541948708  6.2854966068521350  2.4417581177813612
  4.5843744018719050  6.7541183080155900  6.2731008978267218
  2.1010082046328353  4.2599841277587069  9.6041821892977346
